nodeid,nodetype,x,y,z,S11,S22,S33,S12,S13,S12,mises
1,1,0.015524,0.037478,0.000000,196138.245954,-733934.335100,11401.998396,171240.286551,35081.496565,-5890.710100,1241101.875000
2,1,0.015524,0.037478,0.134537,164478.721802,-820842.433594,-5684.625732,193783.059570,-44631.064941,45627.974121,729413.500000
3,1,0.116180,0.138133,0.134537,-360385.828125,-556435.818750,-121475.187695,90269.327734,-21072.194489,-1998.759326,631087.000000
4,1,0.116180,0.138133,0.000000,-334367.171875,-553363.441406,-113745.717041,102906.538940,24019.995636,-2061.152710,839720.687500
5,1,0.015524,0.179827,0.134537,-176747.839844,-1123428.421875,-52795.993652,-278795.484375,-74340.557373,-117144.510254,1110252.875000
6,1,0.015524,0.179827,0.000000,-60171.545410,-891009.730469,-89215.741211,-329348.177734,91631.134033,126032.401367,867533.687500
7,1,0.226294,0.000000,0.134537,29056.657227,-424337.257812,-14528.226685,5478.406876,7139.375000,-4071.839096,380202.156250
8,1,0.226294,-0.000000,0.000000,46592.013184,-406753.750000,-16873.481608,-6944.198366,-12961.938151,-7304.910154,474498.218750
9,1,-0.037478,-0.015524,0.000000,158523.416992,-399960.089844,-37974.332886,-98197.870361,-30469.645020,30975.608887,463629.968750
10,1,-0.037478,-0.015524,0.134537,93385.269531,-408916.929688,-30190.333171,-142504.464518,47926.187907,-17598.618530,622838.062500
11,1,-0.179827,-0.015524,0.134537,319405.238086,-104631.744641,22938.442188,85810.344727,-43059.521045,-41619.195312,431402.625000
12,1,-0.179827,-0.015524,0.000000,248766.434152,-158189.972098,36496.567104,97181.762556,53241.218750,38176.869420,430958.593750
13,1,-0.138133,-0.116180,0.134537,-13649.477679,-89920.023856,31701.742292,348170.303571,-26017.051270,-23830.092250,598532.187500
14,1,-0.138133,-0.116180,0.000000,94346.030273,10090.428516,53060.521875,357535.928125,31299.681055,2149.842969,247330.500000
15,1,-0.015524,-0.179827,0.134537,-28048.994629,-790334.425223,-14734.416051,-183579.829241,53605.049648,59328.069336,746397.375000
16,1,-0.015524,-0.179827,0.000000,-43818.783105,-793920.646875,-33460.008789,-180512.038281,-54865.362146,-39346.783447,672459.562500
17,1,-0.116180,-0.138133,0.000000,-260622.869420,-457236.372768,-63587.545619,69419.344866,-14389.063224,646.437919,452935.312500
18,1,-0.116180,-0.138133,0.134537,-303846.380208,-521810.688802,-102392.771484,49237.473633,6905.075968,537.329040,482502.125000
19,1,-0.015524,-0.037478,0.134537,169483.088989,-698743.957031,-14535.029297,125673.264893,41804.591309,-39968.791504,841762.062500
20,1,-0.015524,-0.037478,0.000000,173261.212500,-650080.981079,31278.770508,163441.057031,-50634.681543,5861.622278,1161709.000000
21,1,0.015524,-0.037478,0.000000,130731.366130,-691926.299479,-3356.666423,-165228.386719,48843.358226,26790.495097,730081.687500
22,1,0.015524,-0.037478,0.134537,193814.029688,-642816.292969,28548.871777,-115870.567871,-35597.399756,17900.398145,787054.937500
23,1,0.015524,-0.179827,0.134537,-61282.855078,-882258.059375,-41461.672070,180503.163281,-61414.814453,75740.650098,1225534.125000
24,1,0.015524,-0.179827,0.000000,-10558.309961,-681520.567187,-41942.621191,188726.977344,52602.982715,-58498.086670,746825.250000
25,1,0.116180,-0.138133,0.134537,-229830.491211,-502335.410156,-49257.236664,-87238.696045,-16139.166199,6214.996704,439934.281250
26,1,0.116180,-0.138133,0.000000,-274063.530273,-526121.235352,-63696.264465,-9775.100525,15220.636719,33055.335360,350975.062500
27,1,-0.138133,0.116180,0.000000,-23866.132161,-93564.715712,2105.886068,-339861.829861,217.733398,-5222.779324,538443.562500
28,1,-0.138133,0.116180,0.134537,22841.743408,-108185.454346,58438.304932,-355435.205078,-44527.221680,5973.807343,710198.250000
29,1,-0.179827,0.015524,0.134537,255735.739955,-168969.495047,7980.496094,-98201.663714,-36902.810547,26750.999023,333552.375000
30,1,-0.179827,0.015524,0.000000,253495.123242,-155929.689062,19462.870276,-59448.156738,28890.352344,-21834.873743,486937.281250
31,1,-0.037478,0.015524,0.134537,217316.328125,-343526.368490,-11141.833049,47706.292806,44985.034505,14747.093262,697826.000000
32,1,-0.037478,0.015524,0.000000,99452.585286,-396353.723958,-28540.896484,82411.359375,-41308.110148,-8693.401449,645413.625000
33,1,0.138133,-0.116180,0.000000,-7893.032959,-172538.429199,37084.887268,-327830.492188,-38015.452393,19634.171143,634307.375000
34,1,0.138133,-0.116180,0.134537,3234.981104,-166550.396875,41095.253516,-324592.118750,33722.747070,-13740.172754,577088.250000
35,1,0.179827,-0.015524,0.134537,327455.025391,-147187.514160,9926.852295,-108550.999512,35838.012817,-38696.447266,441676.843750
36,1,0.179827,-0.015524,0.000000,263816.579627,-166020.340144,14261.171903,-107345.888221,-24059.768930,38889.345961,306201.250000
37,1,0.037478,-0.015524,0.134537,186791.715332,-402089.382812,-21864.137695,105373.791870,-39183.044189,-27234.130249,635613.125000
38,1,0.037478,-0.015524,0.000000,131651.745768,-464436.167969,-34166.912679,78255.204997,28228.362274,11966.997213,622236.937500
39,1,-0.015524,0.037478,0.000000,160856.580664,-698424.957812,-7561.796289,-214947.177734,-59342.247876,-53027.735547,703353.562500
40,1,-0.015524,0.037478,0.134537,209760.107422,-660339.346094,29640.337695,-192961.937891,49304.284253,16926.805029,1237830.125000
41,1,-0.015524,0.179827,0.134537,-121112.707520,-963049.515625,-27413.754883,263457.850586,57053.930542,-76871.707001,1016749.937500
42,1,-0.015524,0.179827,0.000000,-91805.439128,-884424.468750,-39696.337891,262611.588542,-85491.326823,92097.652995,837065.375000
43,1,-0.116180,0.138133,0.134537,-345471.148438,-487868.703125,-75782.743327,-164375.373047,-9653.588704,-16539.013672,423860.062500
44,1,-0.116180,0.138133,0.000000,-329108.937500,-499343.126674,-100518.438616,-33670.489397,-30743.137695,-31340.548828,512822.406250
45,1,0.138133,0.116180,0.000000,47845.767388,-6298.018663,85585.956706,362440.453125,-37942.302029,-9037.995280,851070.812500
46,1,0.037478,0.015524,0.000000,233276.952474,-400745.650391,5463.359701,-40989.752035,13799.443685,-7273.448812,585358.062500
47,1,0.179827,0.015524,0.000000,292997.203125,-173350.071875,34565.623047,123445.794531,-59046.426562,-56977.360547,378222.343750
48,1,0.138133,0.116180,0.134537,-49341.313477,-121482.860156,9629.263477,352225.098438,17627.407935,8876.881836,588234.062500
49,1,0.179827,0.015524,0.134537,369277.173779,-122925.804419,14466.306055,98404.448438,35861.327344,35186.175000,546623.312500
50,1,0.037478,0.015524,0.134537,119532.878125,-405883.769531,-30950.923502,-77047.592578,-41010.031970,16185.359302,711690.500000
51,1,0.015524,0.037478,0.019220,134475.523514,-786682.643921,-41999.061096,197379.057861,36374.988495,-63399.215027,1277023.875000
52,1,0.015524,0.037478,0.038439,127259.922070,-727242.980469,-22741.458691,176950.435156,24109.124628,-13465.486096,631205.812500
53,1,0.015524,0.037478,0.057659,109978.608154,-701961.776563,-25827.957813,176942.694922,5023.641595,-11695.723596,631205.812500
54,1,0.015524,0.037478,0.076878,118021.305859,-647173.802344,-10521.672852,174788.035156,-10431.786328,10260.508185,1378888.000000
55,1,0.015524,0.037478,0.096098,115203.652561,-726088.481771,-20258.257161,192341.312934,-30075.565904,9876.961039,649636.562500
56,1,0.015524,0.037478,0.115317,135127.910427,-655193.642756,492.194425,194144.139915,-41424.455722,12486.802634,729413.500000
57,1,0.029903,0.051857,0.134537,258184.145833,88069.310547,126637.555644,192702.719727,-17808.103628,-38402.834066,403863.812500
58,1,0.044283,0.066236,0.134537,222901.368490,-11481.030273,45963.091634,101329.005534,9843.871867,966.207110,191614.953125
59,1,0.058662,0.080616,0.134537,125087.747070,-74878.704590,8614.515503,24722.327148,21035.554199,25320.518555,225060.937500
60,1,0.073041,0.094995,0.134537,16378.315430,-170870.589844,-18555.169922,-71213.411621,14094.354372,36902.636719,174098.203125
61,1,0.087421,0.109375,0.134537,-35127.727702,-229345.572917,-12917.322103,-155481.613932,3921.453776,25113.004639,278788.718750
62,1,0.101800,0.123754,0.134537,-160468.725260,-380999.255208,-70840.648275,-192593.651042,-471.654093,-3671.371012,184572.812500
63,1,0.116180,0.138133,0.115317,-361994.853299,-535812.775174,-126369.652127,98707.408908,9137.273121,3499.597298,500073.531250
64,1,0.116180,0.138133,0.096098,-332172.057031,-499485.604687,-144380.232422,102247.375977,6426.209168,-7499.235906,286506.968750
65,1,0.116180,0.138133,0.076878,-308794.249290,-459153.004616,-136750.890980,109432.042259,-1169.723151,-1980.367823,807007.250000
66,1,0.116180,0.138133,0.057659,-338843.096094,-512877.574219,-160236.210156,104180.209180,-8679.433490,7679.611972,688554.125000
67,1,0.116180,0.138133,0.038439,-343606.195668,-532467.497869,-152635.228249,111598.447976,-2469.877588,-851.483545,459473.500000
68,1,0.116180,0.138133,0.019220,-346046.213379,-596511.957031,-145462.171509,107529.939941,-7244.807697,10573.051726,951694.062500
69,1,0.101800,0.123754,0.000000,-135320.953125,-476558.611979,-55127.812174,-213905.071615,11817.036702,-21192.517415,263626.875000
70,1,0.087421,0.109375,0.000000,-91439.920247,-282312.445312,-31895.569621,-194536.044352,7886.080790,-15080.579010,445731.562500
71,1,0.073041,0.094995,0.000000,-21511.331055,-210843.679688,-17069.452759,-112588.915527,-6250.908691,-7562.089096,445731.562500
72,1,0.058662,0.080616,0.000000,80152.146484,-103192.537170,7998.285034,-12385.211426,-16815.375977,-5625.909851,170998.812500
73,1,0.044283,0.066236,0.000000,133747.840332,-49209.753937,46379.253113,58078.768127,-2588.483582,21176.815140,207836.328125
74,1,0.029903,0.051857,0.000000,203424.460693,39128.123291,84467.706314,124807.952087,6825.731934,39378.893555,246266.234375
75,1,0.015524,0.179827,0.115317,-149507.088734,-932208.007457,-68928.924094,-202737.686879,-44255.282323,-77803.021579,1373189.750000
76,1,0.015524,0.179827,0.096098,-132025.710236,-873175.617188,-106731.603271,-220696.458984,-26441.742126,-49473.573380,1310497.000000
77,1,0.015524,0.179827,0.076878,-108913.553440,-819700.529514,-84552.224175,-219865.872396,-10718.377784,-19419.562514,1243442.375000
78,1,0.015524,0.179827,0.057659,-127112.580539,-899777.967014,-105706.432509,-169648.745215,4498.798244,15116.429803,1104426.625000
79,1,0.015524,0.179827,0.038439,-116051.664497,-907580.565972,-102778.304226,-168511.948215,19828.664069,54237.707031,1277694.000000
80,1,0.015524,0.179827,0.019220,-112689.546034,-982226.515625,-96976.662326,-158784.089545,34292.158447,92670.289822,858765.937500
81,1,0.033788,0.177305,0.000000,203519.108887,-64714.272461,79256.428711,-227278.730469,68763.489990,-6184.246094,514545.625000
82,1,0.051700,0.172933,0.000000,272203.560547,-80203.456380,75805.233398,-78284.288127,-18843.728353,-3443.139486,514545.625000
83,1,0.069073,0.166756,0.000000,198722.009440,-137871.560547,56046.282227,78476.592448,-70662.926432,-229.724040,282223.406250
84,1,0.085724,0.158839,0.000000,1343.918620,-242524.210938,20409.520671,205893.170573,-67766.752604,30508.958903,434368.500000
85,1,0.101481,0.149265,0.000000,-204739.816162,-558580.736328,-69874.122192,290324.287109,-23566.508354,10752.622070,569628.125000
86,1,0.101481,0.149265,0.134537,-133181.343262,-406252.164062,-31306.315712,274770.693359,32144.323723,-12906.620239,523125.031250
87,1,0.085724,0.158839,0.134537,109601.421387,-227524.034668,18999.105469,165142.223958,60077.028971,-22717.487142,566744.062500
88,1,0.069073,0.166756,0.134537,179178.502480,-237618.493164,33499.730469,96357.065674,35434.887039,-22873.260742,283947.250000
89,1,0.051700,0.172933,0.134537,293947.177083,-72010.951823,56468.974935,-63474.066732,-3279.516195,15200.829183,287138.437500
90,1,0.033788,0.177305,0.134537,36070.956706,-136511.970378,91042.452148,-278464.891927,-105026.335938,-2187.766764,156765.062500
91,1,0.015524,0.159491,0.134537,-59367.959473,-1500299.593750,-96841.334351,-59813.497314,-6156.303833,-83205.189453,1413047.000000
92,1,0.015524,0.139155,0.134537,9785.045898,-1363555.562500,-9894.213440,6660.519836,-1932.592163,-23308.228027,1388370.125000
93,1,0.015524,0.118820,0.134537,5108.478516,-1338132.781250,1660.863342,2688.176758,-3046.069397,-9108.000946,1327245.625000
94,1,0.015524,0.098484,0.134537,6382.095947,-1320557.906250,4744.204346,1325.514404,-3210.525696,-4138.623505,1311404.125000
95,1,0.015524,0.078149,0.134537,4925.898193,-1312422.750000,2067.887085,963.096436,-3679.178711,4213.458923,1308088.250000
96,1,0.015524,0.057813,0.134537,-3273.067871,-1366559.812500,-26366.601440,13869.406250,-5925.032837,53399.182495,1258376.625000
97,1,0.015524,0.057813,0.000000,-11149.710246,-1430735.145833,-110021.324382,38306.746582,-3801.088786,-83826.937500,1256417.750000
98,1,0.015524,0.078149,0.000000,-804.183105,-1336345.468750,-17406.610237,3665.111511,5253.104919,-16630.198120,1316578.125000
99,1,0.015524,0.098484,0.000000,4153.816406,-1334558.562500,592.332756,-4700.190918,2105.791412,3240.733765,1329032.750000
100,1,0.015524,0.118820,0.000000,2656.692383,-1354460.625000,1383.303619,-4740.556763,213.645905,7914.920044,1340113.250000
101,1,0.015524,0.139155,0.000000,558.184204,-1388787.531250,-4237.923553,-5442.918335,-1644.921875,16569.126709,1393246.875000
102,1,0.015524,0.159491,0.000000,-55037.872681,-1519147.125000,-42426.907471,-41933.069580,3492.562683,72918.598145,1441887.625000
103,1,0.225408,-0.020000,0.134537,11809.072917,-363571.151042,-10568.614583,-94565.854818,-1380.476318,2325.915690,366664.937500
104,1,0.222759,-0.039843,0.134537,-18260.460327,-246514.863281,-3496.364014,-129687.849609,-9985.045532,9149.781448,347359.937500
105,1,0.218366,-0.059375,0.134537,-40943.724976,-97349.797363,15407.482910,-93860.355469,-8560.651211,29995.762695,266790.312500
106,1,0.212264,-0.078442,0.134537,-30839.239990,-6389.249023,26974.319336,-42256.234863,-9091.963745,30108.339844,135050.312500
107,1,0.204500,-0.096895,0.134537,-7480.340424,7863.464844,29575.465820,-4257.460815,-4776.986595,15654.750492,173451.265625
108,1,0.195137,-0.114589,0.134537,17214.141724,-4994.305908,25596.588867,7220.240234,-12443.850342,3379.005192,187962.312500
109,1,0.184246,-0.131387,0.134537,23235.083984,-49270.744385,19960.192871,-7774.882812,-12171.366211,-5027.784912,61706.296875
110,1,0.171913,-0.147156,0.134537,-773.547607,-47209.919434,21290.985840,-33760.901245,-16904.540527,-6625.362000,191909.031250
111,1,0.158234,-0.161774,0.134537,-36183.042562,-70365.553548,8760.816935,-55510.396484,-27582.387858,-12338.618317,143165.250000
112,1,0.143317,-0.175126,0.134537,257.954508,-102545.610026,19077.406657,-61325.975260,-20256.770671,-9556.879191,140338.000000
113,1,0.127279,-0.187107,0.134537,-40478.049154,-174490.385417,10560.676921,-164233.553385,-32640.365885,-21836.173340,354049.000000
114,1,0.110244,-0.197624,0.134537,-217239.626302,-243869.653646,-21367.668783,-272847.283854,-32309.513835,-39942.439453,506075.250000
115,1,0.092347,-0.206594,0.134537,-487184.927083,-340782.658854,-100283.142253,-362098.963542,22165.899170,-35502.443359,462238.125000
116,1,0.073727,-0.213947,0.134537,-414517.644516,-395208.553223,-180675.000488,-198447.169189,32265.353516,50166.769043,368340.968750
117,1,0.054530,-0.219626,0.134537,-98076.421204,-86365.253255,-33320.394206,46901.638346,-15927.049805,39063.509766,65817.062500
118,1,0.034906,-0.223586,0.134537,-157499.960938,-273806.421875,-129391.912109,102286.031250,-17624.520020,67937.248047,320245.500000
119,1,0.015008,-0.225796,0.134537,-186759.227051,-508043.843750,-208440.921875,82856.644287,-14475.834351,100678.140625,466230.718750
120,1,-0.005006,-0.226239,0.134537,-161777.490234,-540940.989583,-177424.231771,-48913.083008,4003.704102,78473.595378,499321.125000
121,1,-0.024981,-0.224911,0.134537,-178132.927083,-390289.867188,-141002.782552,-119097.989583,20372.982585,62915.293294,468289.875000
122,1,-0.044761,-0.221823,0.134537,-149880.425537,-201889.908691,-86867.743652,-97077.821289,13011.429718,52088.915039,236944.359375
123,1,-0.064191,-0.216999,0.134537,-212354.794922,-197159.081250,-110094.234375,38279.454639,-957.302539,48950.670312,667276.500000
124,1,-0.083118,-0.210476,0.134537,-345199.003418,-426684.932617,-126288.930176,215243.642090,40213.029297,-109980.341431,939594.125000
125,1,-0.101395,-0.202307,0.134537,-372068.656738,-422771.394531,-95254.182129,414825.181641,29036.970459,-80458.110840,505090.718750
126,1,-0.118878,-0.192554,0.134537,-164762.190023,-264617.757812,6890.929036,263909.436198,37404.387695,-31089.756592,465532.781250
127,1,-0.135431,-0.181294,0.134537,-41336.730057,-167435.025391,22346.625366,97433.637939,24359.358063,-4720.094158,332835.125000
128,1,-0.150923,-0.168615,0.134537,-31426.063477,-68007.139974,24717.249512,28667.246908,27822.600586,-1806.985819,130946.648438
129,1,-0.165235,-0.154617,0.134537,-9926.696289,-25523.429565,26940.915039,29409.942139,17277.676270,-2373.994812,153705.984375
130,1,-0.178254,-0.139408,0.134537,-15012.074382,-65935.563232,15227.915202,42135.768229,5087.763128,5553.444946,165530.390625
131,1,-0.189877,-0.123109,0.134537,-14132.212769,-48250.291290,17888.189209,24128.392578,4964.972321,1715.401930,166861.562500
132,1,-0.200014,-0.105845,0.134537,955.593099,26467.674398,34070.475911,-28327.882487,16512.244792,3621.644791,98907.968750
133,1,-0.208586,-0.087754,0.134537,-33234.146973,14918.351510,24287.475586,24492.065592,13785.179321,3105.531037,174266.203125
134,1,-0.215526,-0.068976,0.134537,-38349.235026,-20792.354492,15575.925130,62932.531576,1106.298116,10763.517008,189120.437500
135,1,-0.220778,-0.049658,0.134537,-36910.117920,-126293.528992,10805.694111,97399.939941,-1050.491541,10225.228302,281443.875000
136,1,-0.224303,-0.029951,0.134537,-9514.716960,-247580.835938,-12274.866943,111674.852865,-5174.745138,5236.898560,281443.875000
137,1,-0.226072,-0.010010,0.134537,38617.866821,-377405.949219,-20137.608551,44291.158142,-5925.908844,2808.501923,416347.312500
138,1,-0.226072,0.010010,0.134537,43722.104076,-386613.679688,-16419.636013,-39532.618896,-2469.977158,2497.217190,365122.281250
139,1,-0.224303,0.029951,0.134537,12328.111328,-310018.289062,-3227.728734,-100956.055990,2371.086385,-7064.998093,318540.937500
140,1,-0.220778,0.049658,0.134537,-36410.602702,-150367.358724,12793.059937,-105622.486979,6478.029371,-18385.283285,273171.125000
141,1,-0.215526,0.068976,0.134537,-37743.706543,-56097.593099,24663.990397,-63086.218099,5549.949252,-26688.862630,188954.359375
142,1,-0.208586,0.087754,0.134537,-40100.462402,-13586.226562,22329.930237,-16185.732651,-1973.806580,-18648.055359,112511.406250
143,1,-0.200014,0.105845,0.134537,-7493.385742,22546.819336,27569.023926,1665.595581,-450.281067,-18781.834961,142608.750000
144,1,-0.189877,0.123109,0.134537,19404.019531,-16192.380219,22922.135742,1690.937500,6366.305481,-5533.427551,94215.953125
145,1,-0.178254,0.139408,0.134537,4228.985352,-33992.967010,19030.063477,-31424.291016,5908.832275,-2726.317383,203758.781250
146,1,-0.165235,0.154617,0.134537,-73145.631836,-44033.726359,5097.356283,-54563.454753,12715.974406,2027.889526,213392.890625
147,1,-0.150923,0.168615,0.134537,-32821.151693,-39939.866536,16872.483887,-26812.052979,7516.618449,-9595.260050,170821.218750
148,1,-0.135431,0.181294,0.134537,21327.554321,-82691.807129,22571.345947,-33150.989258,19069.442871,4233.538849,248572.562500
149,1,-0.118878,0.192554,0.134537,-59774.680664,-168994.976562,14757.219666,-154529.914062,33886.226562,23532.223389,430040.593750
150,1,-0.101395,0.202307,0.134537,-279383.048828,-229150.332031,-13642.444092,-285177.160156,44986.036621,39067.428711,571722.000000
151,1,-0.083118,0.210476,0.134537,-508214.000000,-422879.854167,-38363.327474,-338306.721354,14061.198405,33961.500651,550587.875000
152,1,-0.064191,0.216999,0.134537,-708443.062500,-560087.463542,-68510.557292,-227448.753255,16922.466166,-6882.482422,516730.312500
153,1,-0.044761,0.221823,0.134537,-711515.765625,-617132.937500,1436.211914,-39242.864258,-19214.155762,-55616.482422,698472.000000
154,1,-0.024981,0.224911,0.134537,-427758.089844,-627669.500000,64559.381836,99941.691406,-46061.021973,-80228.684570,705912.000000
155,1,-0.005006,0.226239,0.134537,-187585.917969,-686557.781250,79940.747070,37155.070435,-22817.408691,-73495.858398,647127.000000
156,1,0.015008,0.225796,0.134537,-258275.839844,-672667.140625,85610.558594,-63635.013672,9172.669678,-50731.444336,672551.187500
157,1,0.034906,0.223586,0.134537,-480213.421875,-631060.593750,61001.321167,-60485.912109,55057.688477,-39109.122070,690751.000000
158,1,0.054530,0.219626,0.134537,-725997.968750,-643101.765625,14651.207886,71010.551270,51146.822754,-37753.684570,708464.375000
159,1,0.073727,0.213947,0.134537,-747800.968750,-684412.203125,-10531.607666,278314.890625,-3293.463623,-36549.609863,771881.875000
160,1,0.092347,0.206594,0.134537,-530325.031250,-355083.761719,-3100.582031,427521.304688,-58128.792969,8871.330566,665920.500000
161,1,0.110244,0.197624,0.134537,-229850.275391,-219035.472656,4624.602661,262930.007812,-39285.039062,22540.499023,461132.125000
162,1,0.127279,0.187107,0.134537,-54168.910645,-205924.667969,19942.447449,158384.242920,-19275.721924,8142.219971,399670.406250
163,1,0.143317,0.175126,0.134537,17727.154785,-78937.853516,34849.918579,26492.504395,-28445.976074,3687.978973,74527.460938
164,1,0.158234,0.161774,0.134537,-36217.456543,-22093.224630,24573.911784,42168.970052,-15089.899658,-7759.759631,50991.777344
165,1,0.171913,0.147156,0.134537,-48233.419312,-54936.510040,14333.509338,71886.598877,-939.562256,-2685.055861,59932.832031
166,1,0.184246,0.131387,0.134537,12174.801758,-43873.894531,16662.672363,11637.535645,-6095.700195,-4071.173950,59932.832031
167,1,0.195137,0.114589,0.134537,-1075.350505,-37761.176595,23135.911377,2128.937826,1379.953044,-8227.183594,163451.765625
168,1,0.204500,0.096895,0.134537,-24284.300110,-21208.559326,26193.770172,14015.262146,-2981.345129,-10365.710602,192130.781250
169,1,0.212264,0.078442,0.134537,-46648.325439,-39572.559937,21063.363281,45422.524841,-2128.308281,-9426.042999,236240.468750
170,1,0.218366,0.059375,0.134537,-40092.711995,-60603.209635,6128.888265,75043.714518,-51.349721,-9916.243886,241986.656250
171,1,0.222759,0.039843,0.134537,-22017.306641,-194218.851562,-2927.727810,104195.769531,8398.916870,-21175.908203,312101.875000
172,1,0.225408,0.020000,0.134537,9967.202026,-334603.273438,-5966.746975,82162.660156,8120.078293,-20756.354492,341675.531250
173,1,0.225408,0.020000,0.000000,16059.300130,-359901.859375,-13336.101807,97324.747396,-631.572550,4712.203613,483722.187500
174,1,0.222759,0.039843,0.000000,-21568.801514,-235903.122070,988.661560,120098.117188,4360.903778,8574.326660,303303.312500
175,1,0.218366,0.059375,0.000000,-46803.520996,-112783.909790,18133.495483,95442.608398,7948.335327,13843.262970,204337.343750
176,1,0.212264,0.078442,0.000000,-38801.460938,-22259.381673,19343.640951,49047.363932,8068.003387,26235.453369,111857.117188
177,1,0.204500,0.096895,0.000000,-12610.568848,5227.655029,27775.849365,9621.883789,4116.330719,16216.104874,162178.671875
178,1,0.195137,0.114589,0.000000,-69.111979,-33395.428874,27467.508382,-6979.838542,10957.524658,-4758.103994,94288.742188
179,1,0.184246,0.131387,0.000000,13364.884155,-78605.914062,15994.830688,6373.980957,5385.957428,-885.731995,152687.359375
180,1,0.171913,0.147156,0.000000,2108.791016,-61944.058212,13034.173096,43399.811768,3261.732880,-2638.624813,196927.640625
181,1,0.158234,0.161774,0.000000,-46827.059998,-38272.480209,26404.516693,37654.931152,18803.859406,2653.562607,105356.398438
182,1,0.143317,0.175126,0.000000,-10331.909119,-94531.963379,33920.629532,22165.904419,8036.456467,13093.654526,219728.812500
183,1,0.127279,0.187107,0.000000,-19708.225189,-213828.269531,4691.321407,118806.613159,-1072.863602,-888.408859,219728.812500
184,1,0.110244,0.197624,0.000000,-181135.906250,-249895.675781,3962.020081,262439.730469,30767.490967,-28817.919922,374105.625000
185,1,0.092347,0.206594,0.000000,-456643.286458,-449000.760417,-45869.699219,397774.192708,20402.887624,-37852.333984,765539.937500
186,1,0.073727,0.213947,0.000000,-672888.113281,-635700.964844,-87069.778076,274063.202637,13634.684204,14184.043945,618583.312500
187,1,0.054530,0.219626,0.000000,-723797.885417,-540596.026042,-16367.561483,80910.281250,-3338.265788,49998.811849,623712.687500
188,1,0.034906,0.223586,0.000000,-538286.776042,-512632.473958,27588.943400,-62950.538411,-21356.535075,74084.812500,678231.000000
189,1,0.015008,0.225796,0.000000,-319315.888672,-670491.703125,69761.979004,-82634.698242,-22254.709839,73390.964844,683626.625000
190,1,-0.005006,0.226239,0.000000,-189969.412109,-684793.406250,79704.288086,22047.215820,-1997.001221,67665.618164,633096.062500
191,1,-0.024981,0.224911,0.000000,-341001.695312,-619447.250000,64321.761230,93358.525391,23318.344055,59307.897461,678886.875000
192,1,-0.044761,0.221823,0.000000,-592982.052083,-576475.817708,8284.989258,-6718.637370,38132.608195,40472.464518,629106.875000
193,1,-0.064191,0.216999,0.000000,-737811.662500,-590258.718750,-18533.150781,-171443.854687,19873.048486,47535.235156,739710.437500
194,1,-0.083118,0.210476,0.000000,-533002.125000,-393513.145833,-33093.372396,-329346.716146,-3348.960286,-37733.986816,580179.750000
195,1,-0.101395,0.202307,0.000000,-346997.761719,-253937.292969,-25938.735260,-324493.964844,-27645.717529,-41989.339355,501559.125000
196,1,-0.118878,0.192554,0.000000,-113578.725098,-181107.268229,10731.655273,-196135.544271,-29711.218587,-10201.198507,230891.640625
197,1,-0.135431,0.181294,0.000000,-7113.666748,-103144.709473,25167.441254,-63110.152344,-30483.994141,-4774.907028,230891.640625
198,1,-0.150923,0.168615,0.000000,-1068.408691,-11061.143555,30464.435059,483.281250,-22805.838867,-3162.575500,173313.765625
199,1,-0.165235,0.154617,0.000000,-15738.297363,-1989.049744,23319.082031,-33009.447266,-6008.249207,6352.575867,207941.109375
200,1,-0.178254,0.139408,0.000000,-5663.260254,-79481.619954,12634.913737,-48063.803385,-9401.760539,15577.043783,225576.750000
201,1,-0.189877,0.123109,0.000000,-673.392677,-50921.660278,24589.869812,-7530.693848,-9841.673340,5544.930115,159562.000000
202,1,-0.200014,0.105845,0.000000,-26266.432382,26376.185931,31540.241124,12476.630038,-2422.726665,-1004.484166,74731.148438
203,1,-0.208586,0.087754,0.000000,-30409.144287,16176.259766,28494.527496,-17838.227709,-435.691603,15944.981476,154049.671875
204,1,-0.215526,0.068976,0.000000,-52438.170410,-45573.407471,16403.582626,-63866.499451,2332.309128,14530.531738,207590.703125
205,1,-0.220778,0.049658,0.000000,-37092.495931,-118021.617188,1359.729838,-101480.868490,2809.922038,14493.385091,287400.343750
206,1,-0.224303,0.029951,0.000000,54.980347,-262853.755208,-10493.939616,-114508.240885,4257.722982,7546.696981,287400.343750
207,1,-0.226072,0.010010,0.000000,44066.202799,-373777.307292,-18789.700521,-50193.423950,6311.005941,4366.961100,457476.281250
208,1,-0.226072,-0.010010,0.000000,44493.177450,-381383.843750,-20428.866536,45990.073405,892.226639,-1954.396723,358701.281250
209,1,-0.224303,-0.029951,0.000000,14507.228190,-313609.697917,-10346.857503,93873.238281,5888.149129,-5913.818225,410312.312500
210,1,-0.220778,-0.049658,0.000000,-28431.999268,-158084.197754,5567.773376,102160.810547,-4710.857971,-19221.180542,257842.296875
211,1,-0.215526,-0.068976,0.000000,-34107.270508,-45434.104980,20275.254883,59367.239502,-7015.827576,-24857.901855,205097.234375
212,1,-0.208586,-0.087754,0.000000,-11065.513916,25011.738281,28965.889893,3322.374268,-6807.690308,-20878.188721,99139.375000
213,1,-0.200014,-0.105845,0.000000,-4583.035116,-6081.407227,31471.634277,-9448.443685,-13046.075439,-4107.507202,95243.429688
214,1,-0.189877,-0.123109,0.000000,19557.763835,-23192.404622,22663.609538,-14658.766276,-8141.267944,-2320.801799,146365.703125
215,1,-0.178254,-0.139408,0.000000,-19935.036682,-68056.355347,12800.129059,53703.420898,-2912.380676,7716.517731,230065.406250
216,1,-0.165235,-0.154617,0.000000,-41054.328206,-59966.880310,4551.664062,58943.960124,-16858.202962,3993.230570,219445.140625
217,1,-0.150923,-0.168615,0.000000,-7965.829793,-75400.502441,28815.855652,24982.205485,-21198.206543,8148.286764,64868.957031
218,1,-0.135431,-0.181294,0.000000,-7.279012,-133825.009115,22307.263468,68738.440348,-31391.250977,14646.048340,277423.875000
219,1,-0.118878,-0.192554,0.000000,-103910.807861,-207067.843750,646.190491,209143.068359,-43182.415039,25652.919189,341594.968750
220,1,-0.101395,-0.202307,0.000000,-302327.075521,-163993.487264,-35384.284993,358570.776042,-41877.327474,68188.427409,511279.625000
221,1,-0.083118,-0.210476,0.000000,-570079.843750,-385240.122681,-74459.698893,383692.022135,-45724.322917,163004.420573,815107.250000
222,1,-0.064191,-0.216999,0.000000,-363905.937500,-347161.733398,-110990.116211,61863.533691,-26034.885864,-14037.671875,324604.687500
223,1,-0.044761,-0.221823,0.000000,-156044.800781,-203630.597656,-107902.617188,-104113.345703,-16373.634766,-58298.221680,278779.281250
224,1,-0.024981,-0.224911,0.000000,-188998.671875,-405542.921875,-178362.476562,-123546.189453,-18778.080811,-86194.732422,278779.281250
225,1,-0.005006,-0.226239,0.000000,-152572.883464,-550723.463542,-172733.609701,-32206.911133,-7669.754985,-89979.462240,447468.750000
226,1,0.015008,-0.225796,0.000000,-183903.488281,-518949.546875,-170634.550781,65403.171875,5944.267293,-79781.126953,505275.375000
227,1,0.034906,-0.223586,0.000000,-169909.667969,-335181.917969,-151527.474609,99998.326172,21878.655273,-84407.060547,328953.562500
228,1,0.054530,-0.219626,0.000000,-155159.570312,-205381.035156,-108162.179688,67145.883789,13982.539795,-52994.014648,169263.578125
229,1,0.073727,-0.213947,0.000000,-368893.148438,-428822.070312,-239314.562500,-131817.662109,-546.643799,-62721.421875,453819.468750
230,1,0.092347,-0.206594,0.000000,-466332.973958,-296499.029948,-116464.022461,-338830.033854,15416.193522,10814.555664,525588.562500
231,1,0.110244,-0.197624,0.000000,-242747.921875,-212029.068359,-30347.017578,-301933.939453,18551.359497,9584.028564,430668.468750
232,1,0.127279,-0.187107,0.000000,-120573.655599,-200066.283854,-3451.792480,-191573.467448,34042.252279,14101.668620,361271.562500
233,1,0.143317,-0.175126,0.000000,-29146.909668,-109076.774740,28916.639648,-65334.106120,26954.650228,13059.052979,246586.593750
234,1,0.158234,-0.161774,0.000000,-52699.569906,-63012.337402,15245.019450,-52692.298950,30533.635417,10568.277581,277972.468750
235,1,0.171913,-0.147156,0.000000,-16896.333557,-38592.518066,22018.681152,-43213.304443,23700.899902,9627.948730,77862.476562
236,1,0.184246,-0.131387,0.000000,10817.769531,-56307.284424,22712.118652,-19406.257568,16847.682861,848.516052,77862.476562
237,1,0.195137,-0.114589,0.000000,-4364.309733,-46129.104655,30492.765381,-1359.607178,7163.045161,-5858.405396,157906.921875
238,1,0.204500,-0.096895,0.000000,-27453.304077,-21837.807373,23801.935791,-18963.072815,6670.261070,-13098.348022,174347.437500
239,1,0.212264,-0.078442,0.000000,-23306.506673,27054.100098,29900.224609,-29096.436320,3761.648822,-18386.992350,209410.859375
240,1,0.218366,-0.059375,0.000000,-31645.783936,-64756.770508,19265.325928,-78822.383301,-977.140354,-23703.262695,281536.250000
241,1,0.222759,-0.039843,0.000000,-22914.925781,-189179.279297,2154.639648,-105334.029297,-7032.323669,-26232.074951,183197.796875
242,1,0.225408,-0.020000,0.000000,10977.611572,-331159.390625,-10513.655518,-96408.835938,-9621.210083,-19253.097656,474498.218750
243,1,-0.037478,-0.015524,0.019220,159677.748798,-435172.095553,-18148.016545,-79746.256949,-19152.291635,14043.096849,645390.437500
244,1,-0.037478,-0.015524,0.038439,173027.755208,-426208.505208,-17557.245870,-66739.243052,-23298.008581,3978.765350,665612.125000
245,1,-0.037478,-0.015524,0.057659,125825.431445,-375824.458203,-23862.564746,-92168.622949,653.355544,-3650.046024,369054.187500
246,1,-0.037478,-0.015524,0.076878,109329.614696,-385392.066051,-25844.900901,-70361.402566,8913.462176,-2031.792081,638682.812500
247,1,-0.037478,-0.015524,0.096098,114774.709717,-370880.481445,-27620.286224,-97412.150146,21399.039612,1730.592915,644261.437500
248,1,-0.037478,-0.015524,0.115317,162633.101017,-432228.400000,-19711.783028,-46787.467122,24232.229581,-9836.984631,584857.625000
249,1,-0.057813,-0.015524,0.134537,467596.156250,-28861.576172,67858.050049,11798.810059,65939.539551,-9515.214355,337131.375000
250,1,-0.078149,-0.015524,0.134537,419633.507812,8483.817139,14056.235229,-14223.780121,10595.781006,-8254.683899,377922.437500
251,1,-0.098484,-0.015524,0.134537,395604.304688,-4602.623291,-2787.051880,-4327.019012,-4262.019226,-3989.631744,382267.250000
252,1,-0.118820,-0.015524,0.134537,391648.171875,-3966.922852,-4676.888672,-4337.263000,-6013.177734,-2921.154785,385580.000000
253,1,-0.139155,-0.015524,0.134537,386342.882812,-4289.924561,-3072.627197,-5351.209534,-7690.160034,-3076.325073,383775.625000
254,1,-0.159491,-0.015524,0.134537,412596.398438,1206.935753,21590.315645,-722.485592,-19057.385025,-2374.888176,375323.000000
255,1,-0.179827,-0.015524,0.115317,212383.491089,-159988.924444,11981.287476,82928.741923,-15021.036062,-22817.587317,281406.562500
256,1,-0.179827,-0.015524,0.096098,219090.395074,-151709.192010,29747.981635,91509.130737,-10362.005046,-15370.037857,404122.593750
257,1,-0.179827,-0.015524,0.076878,230081.167259,-150638.501244,33378.312378,78931.491169,-5508.480988,-13249.483749,406249.406250
258,1,-0.179827,-0.015524,0.057659,249932.194244,-142036.058838,37176.227246,61608.889625,4687.680392,1179.878409,369165.062500
259,1,-0.179827,-0.015524,0.038439,226621.374414,-151830.780762,27457.220068,85028.274255,12767.541309,11351.866870,353243.968750
260,1,-0.179827,-0.015524,0.019220,213033.002726,-154311.631490,18258.075227,83824.214986,23042.893405,18001.656868,437297.750000
261,1,-0.159491,-0.015524,0.000000,419030.640625,7027.532455,47399.687500,9065.140747,32327.597900,4666.972733,376702.437500
262,1,-0.139155,-0.015524,0.000000,395476.796875,-1741.550674,3666.477783,-25.308167,5140.173584,3980.875610,422694.750000
263,1,-0.118820,-0.015524,0.000000,382555.046875,-3191.415405,-3598.648315,-2281.782104,575.079956,2157.614960,377602.843750
264,1,-0.098484,-0.015524,0.000000,384764.281250,-3811.054443,-3481.628296,-2249.861938,12.482422,2308.389832,417445.218750
265,1,-0.078149,-0.015524,0.000000,387356.078125,1147.716919,5575.849074,-5220.942301,165.884226,-721.522044,383171.937500
266,1,-0.057813,-0.015524,0.000000,417964.890625,-17117.710327,20966.717692,-6221.243327,-25650.817698,312.798676,676586.562500
267,1,-0.138133,-0.116180,0.115317,-42688.667125,-163496.867942,8230.901267,298599.586648,-11842.089544,-1430.591009,598532.187500
268,1,-0.138133,-0.116180,0.096098,-26487.405762,-143213.483032,33891.423935,321113.644531,-6785.893692,-11132.573196,808561.687500
269,1,-0.138133,-0.116180,0.076878,-36682.450629,-115327.773329,43431.617893,311346.125868,-4737.285712,-2443.584202,833625.937500
270,1,-0.138133,-0.116180,0.057659,-859.228620,-57588.898577,72907.708705,341550.358259,-3391.737418,1496.000581,689880.312500
271,1,-0.138133,-0.116180,0.038439,-43630.024826,-81199.665527,56845.492096,322584.528320,14128.817251,5710.535620,687623.000000
272,1,-0.138133,-0.116180,0.019220,-8634.964288,-99304.168837,44933.771105,312653.057292,17129.793042,-4755.311388,539268.500000
273,1,-0.149265,-0.101481,0.000000,-165032.042969,-471578.375000,-60836.414062,289573.261719,30359.516602,-41559.229492,720952.125000
274,1,-0.158839,-0.085724,0.000000,-184777.898438,-508743.031250,-44118.300781,268347.296875,-3879.930298,-11323.482452,393607.843750
275,1,-0.166756,-0.069073,0.000000,-150177.578125,-522500.664062,-42994.205078,248288.121094,-18620.819824,5914.111969,667305.625000
276,1,-0.172933,-0.051700,0.000000,-77480.915365,-436292.666667,-16070.112976,204220.164062,-14889.686513,30047.434896,398301.531250
277,1,-0.177305,-0.033788,0.000000,-39004.554932,-351458.230469,-17047.166428,175741.338867,-4644.551346,39069.555908,418414.843750
278,1,-0.177305,-0.033788,0.134537,-38207.581055,-312417.457031,-41102.324707,172902.089844,15497.812378,-68378.080078,342575.312500
279,1,-0.172933,-0.051700,0.134537,-69453.088867,-438821.932292,-29777.281148,186563.096354,20005.050293,-27322.249003,666013.000000
280,1,-0.166756,-0.069073,0.134537,-114021.462402,-461495.179688,-32989.594910,221198.029297,11456.429016,-7605.821625,471123.812500
281,1,-0.158839,-0.085724,0.134537,-152550.072917,-517616.328125,-33852.170064,259797.255208,20298.408244,4088.174622,402814.375000
282,1,-0.149265,-0.101481,0.134537,-121988.297852,-453285.973958,-31228.979818,280034.177083,-10633.985636,25854.014648,519831.281250
283,1,-0.123754,-0.101800,0.134537,198684.454102,86010.071777,89364.290527,226497.504028,-7030.801193,-28323.245300,456170.500000
284,1,-0.109375,-0.087421,0.134537,208734.059245,38903.169515,31181.317983,139162.573079,2768.496745,-1288.742310,162147.015625
285,1,-0.094995,-0.073041,0.134537,124735.951172,-69324.200317,327.537476,30552.845703,11045.596313,21149.000000,211235.890625
286,1,-0.080616,-0.058662,0.134537,24815.390625,-170442.056641,-10265.307373,-68702.868164,15959.147217,33219.618652,213862.109375
287,1,-0.066236,-0.044283,0.134537,-79792.325684,-258323.632812,-30771.938477,-163321.538086,12309.008911,39069.519043,212519.593750
288,1,-0.051857,-0.029903,0.134537,-189590.089203,-352385.480469,-54688.716797,-252246.570312,4837.640320,23806.950195,221320.406250
289,1,-0.051857,-0.029903,0.000000,-162657.804688,-355396.291992,-66816.047852,-228092.368164,10706.331787,-13957.218933,267933.750000
290,1,-0.066236,-0.044283,0.000000,-134097.922325,-290573.648438,-38953.997559,-214097.947266,7097.679756,-22130.111084,627215.562500
291,1,-0.080616,-0.058662,0.000000,-29174.570312,-207173.375000,-15224.511074,-118050.608398,-13157.188110,-20846.631104,210104.328125
292,1,-0.094995,-0.073041,0.000000,70622.139160,-106076.342529,11232.741211,-22161.603516,-24998.873535,-13243.832886,203452.312500
293,1,-0.109375,-0.087421,0.000000,168722.044434,4897.846924,38796.054688,72762.212891,-27655.567383,1341.697144,191530.953125
294,1,-0.123754,-0.101800,0.000000,231060.986328,122709.830078,69949.283203,197703.259766,-14519.571289,27745.812744,402201.750000
295,1,-0.015524,-0.179827,0.115317,-69197.027563,-825160.428906,-66866.625952,-136271.140279,36113.886951,38627.875757,794955.437500
296,1,-0.015524,-0.179827,0.096098,-87914.824463,-837391.213867,-97688.916443,-175439.771484,19738.255243,24603.872437,1222649.250000
297,1,-0.015524,-0.179827,0.076878,-78305.136597,-821159.140625,-109552.155579,-177342.480469,9939.630602,18056.680504,1160775.875000
298,1,-0.015524,-0.179827,0.057659,-80104.176849,-782427.364258,-104720.947876,-176570.946899,-13423.738091,-18352.894417,1160775.875000
299,1,-0.015524,-0.179827,0.038439,-78915.786412,-728030.366908,-78432.501395,-199832.904018,-24781.654628,-33048.668126,728509.625000
300,1,-0.015524,-0.179827,0.019220,-76103.165894,-742602.202539,-59238.792773,-189297.867188,-46016.849170,-48071.407471,672459.562500
301,1,-0.033788,-0.177305,0.000000,186820.986654,1365.999837,66361.003906,-220884.864583,-63154.374023,19921.644938,469282.343750
302,1,-0.051700,-0.172933,0.000000,312569.013428,36585.350830,85980.620117,-185000.684570,2688.855080,13263.723358,597040.812500
303,1,-0.069073,-0.166756,0.000000,345685.156250,-44649.224019,73948.153656,-97387.689779,35883.923014,17365.749756,196194.875000
304,1,-0.085724,-0.158839,0.000000,179441.511475,-174792.138672,43795.725339,67345.503418,36497.317383,-3234.332642,476190.187500
305,1,-0.101481,-0.149265,0.000000,-57206.389648,-375799.638672,-23448.077148,265504.199219,49685.388672,-35348.989258,466586.718750
306,1,-0.116180,-0.138133,0.019220,-299041.705078,-550256.554688,-119019.345642,60344.723633,-1226.797024,10548.410461,550944.312500
307,1,-0.116180,-0.138133,0.038439,-272182.151634,-492716.465554,-110640.787043,86395.440918,1652.842334,14502.853841,416689.750000
308,1,-0.116180,-0.138133,0.057659,-335746.772461,-599429.077148,-172097.721680,49158.172729,-726.351503,5916.415878,492502.718750
309,1,-0.116180,-0.138133,0.076878,-343250.368164,-635703.076172,-181945.357666,47278.732239,2858.355431,-2851.029560,431079.125000
310,1,-0.116180,-0.138133,0.096098,-268612.731357,-521585.953835,-112408.218991,81956.640270,10305.835505,-12647.414642,410523.718750
311,1,-0.116180,-0.138133,0.115317,-326655.643555,-549995.157227,-116901.987427,40584.327393,12240.129913,-21024.472412,482502.125000
312,1,-0.101481,-0.149265,0.134537,9174.967773,-312443.578125,11321.940430,195032.123047,-45219.977539,18715.428101,366890.687500
313,1,-0.085724,-0.158839,0.134537,266079.565104,-155558.477865,49698.344401,52890.834635,-37507.238281,-21102.538249,342191.843750
314,1,-0.069073,-0.166756,0.134537,425186.664062,5048.153320,99019.171387,-105046.753906,-30071.172363,-26840.311523,219402.953125
315,1,-0.051700,-0.172933,0.134537,272792.517578,19058.985352,84330.155640,-125657.500732,24736.609375,-21792.360275,479559.593750
316,1,-0.033788,-0.177305,0.134537,177574.312500,28018.171224,106203.937948,-198230.662760,99965.272135,-26918.766439,624692.437500
317,1,-0.015524,-0.037478,0.115317,134621.162834,-666828.257812,-7936.714233,85613.407422,21485.614371,-25222.976595,1193846.000000
318,1,-0.015524,-0.037478,0.096098,117548.090386,-603383.511285,9636.515727,150826.540690,17567.255561,-7028.985948,528884.375000
319,1,-0.015524,-0.037478,0.076878,102678.215963,-581976.593099,2559.520604,125451.954753,5841.810137,-180.934031,706060.562500
320,1,-0.015524,-0.037478,0.057659,98261.251065,-591151.414773,-2778.809482,130333.543324,-2091.253568,-1724.684093,706060.562500
321,1,-0.015524,-0.037478,0.038439,114819.417676,-647524.025195,-14195.136401,140754.871289,-14006.596003,38864.594775,1236792.750000
322,1,-0.015524,-0.037478,0.019220,135644.192458,-607400.376887,17089.826003,135896.719651,-32949.660922,11932.881240,349869.687500
323,1,-0.015524,-0.057813,0.000000,-27020.909505,-1252923.145833,-82905.607340,59317.138997,-9696.584229,48268.939128,1196303.500000
324,1,-0.015524,-0.078149,0.000000,-3182.143433,-1198310.000000,-7746.056641,10488.575500,-9147.235504,5425.042465,1178629.750000
325,1,-0.015524,-0.098484,0.000000,2893.758911,-1185991.312500,4947.957031,-1869.300781,-2867.034424,-1528.961151,1173729.375000
326,1,-0.015524,-0.118820,0.000000,5320.839355,-1186012.093750,6154.314453,-4960.012451,-2160.132996,-114.474457,1172184.625000
327,1,-0.015524,-0.139155,0.000000,6109.549316,-1189298.375000,3543.383545,-5204.113525,-2686.525269,-1162.344963,1162751.750000
328,1,-0.015524,-0.159491,0.000000,-30247.130615,-1242953.906250,-20126.837158,-28275.938965,-3959.355072,-34255.791748,1147981.625000
329,1,-0.015524,-0.159491,0.134537,-35651.215332,-1224612.218750,-79003.540161,-35138.831543,-3387.989014,36497.915710,1162092.875000
330,1,-0.015524,-0.139155,0.134537,8372.021484,-1175274.781250,-5871.893799,969.240051,2249.254944,-2435.374451,1158925.250000
331,1,-0.015524,-0.118820,0.134537,4980.605713,-1176863.375000,4752.795410,-968.474243,2478.214722,-6695.913818,1169270.000000
332,1,-0.015524,-0.098484,0.134537,5702.971924,-1176886.468750,5472.560791,-2060.715706,2457.973511,-5106.837036,1170177.125000
333,1,-0.015524,-0.078149,0.134537,4342.324463,-1177242.625000,541.227173,-4477.809090,1672.969360,-9653.039673,1168265.625000
334,1,-0.015524,-0.057813,0.134537,5319.946045,-1216927.062500,-25541.074605,4025.756816,3625.329173,-43741.583659,1358465.000000
335,1,-0.029903,-0.051857,0.134537,269588.431641,121354.185547,125567.654297,204103.439453,28671.537842,38292.094070,381672.187500
336,1,-0.044283,-0.066236,0.134537,190488.138672,-5799.723633,42881.027832,82733.506836,-20451.134277,-6015.176376,381672.187500
337,1,-0.058662,-0.080616,0.134537,81152.329590,-121424.614258,7622.912720,-15527.769531,-24163.496582,-24951.657959,218773.500000
338,1,-0.073041,-0.094995,0.134537,-23385.433746,-249637.902344,-21643.421875,-121227.930664,-11211.182617,-29857.080322,234409.171875
339,1,-0.087421,-0.109375,0.134537,-55802.435547,-311991.054688,-43628.863118,-197744.916016,-2008.433980,-11706.322021,515939.781250
340,1,-0.101800,-0.123754,0.134537,-150406.059814,-327395.669922,-47672.815796,-182690.416504,-19617.659271,-801.834290,202304.687500
341,1,-0.101800,-0.123754,0.000000,-236730.427734,-490215.048828,-85270.937500,-286455.697266,-2047.493729,53177.813477,660863.250000
342,1,-0.087421,-0.109375,0.000000,-148946.721191,-312385.507812,-35151.960938,-231740.674805,7042.138550,41110.591309,660863.250000
343,1,-0.073041,-0.094995,0.000000,-52832.457764,-236874.761719,-14614.818115,-141454.083008,18793.730225,26925.120117,420822.687500
344,1,-0.058662,-0.080616,0.000000,43431.202393,-137379.882812,9321.180664,-49419.775391,25326.609863,16521.710938,254872.750000
345,1,-0.044283,-0.066236,0.000000,135830.779907,-28111.279785,34995.651855,45963.925781,24353.272949,847.418213,187736.343750
346,1,-0.029903,-0.051857,0.000000,225301.717590,96255.683594,61432.226562,166173.572266,-4654.117188,-17577.505371,175910.765625
347,1,0.015524,-0.037478,0.019220,120722.252490,-650389.717187,-2523.586523,-172153.398047,37620.207144,15729.563922,730081.687500
348,1,0.015524,-0.037478,0.038439,105590.943018,-651788.545312,-15792.272949,-152847.157031,25407.026611,11708.705255,679851.312500
349,1,0.015524,-0.037478,0.057659,104710.113636,-638980.396307,-12474.591131,-145028.176136,11847.442699,12312.087497,498703.031250
350,1,0.015524,-0.037478,0.076878,105257.258594,-616589.288281,-3650.084131,-157010.137695,-4270.473712,-12009.385416,498703.031250
351,1,0.015524,-0.037478,0.096098,114945.409010,-640370.107639,761.593424,-152955.948351,-13933.692973,-19613.138950,611584.187500
352,1,0.015524,-0.037478,0.115317,117943.749947,-646151.042448,703.431551,-89481.211499,-20999.330769,-22427.074109,611584.187500
353,1,0.015524,-0.057813,0.134537,1500.389709,-1217635.458333,-58118.338216,-10517.845296,-1266.782145,-36309.755534,1166074.375000
354,1,0.015524,-0.078149,0.134537,5973.214600,-1191088.843750,240.761963,-2124.620590,-6875.599792,-6612.470703,1170022.750000
355,1,0.015524,-0.098484,0.134537,5101.494141,-1173486.781250,7079.773438,-102.816345,-4327.134064,1951.988419,1170022.750000
356,1,0.015524,-0.118820,0.134537,5626.797607,-1167678.187500,7228.718994,251.807312,-3295.033997,1646.440430,1166976.875000
357,1,0.015524,-0.139155,0.134537,6936.930420,-1161843.187500,5420.072266,-160.986694,-3983.401672,3342.839203,1200768.000000
358,1,0.015524,-0.159491,0.134537,-21303.879028,-1198754.750000,-14328.241699,14904.692566,-5187.340271,34989.395630,1225534.125000
359,1,0.015524,-0.179827,0.115317,-73516.990168,-787792.820312,-47189.670188,145014.227221,-43507.639277,34205.177327,817895.562500
360,1,0.015524,-0.179827,0.096098,-99134.746674,-774660.193359,-87294.721893,181419.607910,-27448.714622,23456.720173,861464.937500
361,1,0.015524,-0.179827,0.076878,-89507.765335,-758285.871582,-104202.399109,186307.260254,-14046.959633,8090.869217,624379.937500
362,1,0.015524,-0.179827,0.057659,-62292.204150,-712665.250391,-90503.795898,175227.770313,3783.422663,-19571.209647,710939.375000
363,1,0.015524,-0.179827,0.038439,-103980.670619,-768606.224330,-95850.326521,187316.821429,27504.785505,-35438.572614,603123.062500
364,1,0.015524,-0.179827,0.019220,-55805.850536,-770086.870739,-62830.358892,162773.226030,30240.380759,-42776.193803,663681.625000
365,1,0.015524,-0.159491,0.000000,-51901.764648,-1254700.812500,-93936.346191,54898.692627,2695.137560,-47520.843628,1159094.875000
366,1,0.015524,-0.139155,0.000000,7765.199951,-1161626.562500,-3158.093750,-2211.939209,3050.430040,-1877.844055,1150364.375000
367,1,0.015524,-0.118820,0.000000,5205.197998,-1165890.843750,5788.204834,-4268.539062,2640.068909,4043.119873,1198163.625000
368,1,0.015524,-0.098484,0.000000,3824.457031,-1176461.125000,4964.797607,-5288.513672,1849.650696,3559.513489,1166056.000000
369,1,0.015524,-0.078149,0.000000,-2336.503306,-1194849.479167,-8128.122965,-14219.209167,-380.982910,8808.524740,1179815.625000
370,1,0.015524,-0.057813,0.000000,-11695.140572,-1245495.218750,-52949.528442,-47413.852173,14238.843513,54148.829407,1391301.375000
371,1,0.116180,-0.138133,0.115317,-267012.318750,-505522.031641,-88747.055811,-58223.699463,-2554.450293,-13951.374561,570372.437500
372,1,0.116180,-0.138133,0.096098,-283077.403906,-564590.897656,-124931.308545,-55414.893506,1902.517725,-30297.083936,294607.500000
373,1,0.116180,-0.138133,0.076878,-291778.235938,-569813.481250,-124230.993433,-66654.878955,-1988.546603,-12004.164101,869007.687500
374,1,0.116180,-0.138133,0.057659,-298176.026042,-599652.844618,-138077.366211,-53478.457628,5464.464054,10504.195386,414792.593750
375,1,0.116180,-0.138133,0.038439,-274700.636719,-524892.376420,-116552.355380,-74034.170455,-1552.819613,6626.784149,626870.937500
376,1,0.116180,-0.138133,0.019220,-247133.914931,-584359.423286,-103898.337918,-48266.897868,-4371.819336,39817.000652,350975.062500
377,1,0.101481,-0.149265,0.000000,11108.642904,-366942.981771,10002.468241,-202458.516927,-31771.017171,-10287.938202,427281.218750
378,1,0.085724,-0.158839,0.000000,193615.558594,-148945.285156,53102.165283,-52495.185547,-44951.367676,13383.483177,276131.812500
379,1,0.069073,-0.166756,0.000000,317488.328125,-26136.236979,74199.790527,81542.873372,-62174.511068,25045.041951,138076.812500
380,1,0.051700,-0.172933,0.000000,318841.539062,50767.076172,65160.747559,169287.353516,-18444.882324,2947.432739,563502.187500
381,1,0.033788,-0.177305,0.000000,135174.359172,-5344.603902,50894.630697,183277.890625,52957.235514,5979.999186,266659.187500
382,1,0.033788,-0.177305,0.134537,28364.105225,-5425.215169,81217.369792,194127.388021,-91143.260742,-8830.421539,634837.125000
383,1,0.051700,-0.172933,0.134537,191816.269033,10507.166016,59951.242188,104730.945638,-13211.242676,-9569.826558,341620.562500
384,1,0.069073,-0.166756,0.134537,380761.378906,21384.846191,83805.459473,103770.329102,34847.139404,-30715.302246,463056.062500
385,1,0.085724,-0.158839,0.134537,218735.080688,-159710.768799,30839.218506,-30264.978638,37825.725464,-12630.300415,331362.125000
386,1,0.101481,-0.149265,0.134537,66728.951218,-284980.167969,10963.597778,-137092.040039,15112.225834,4099.267059,331362.125000
387,1,0.101800,-0.123754,0.134537,-242442.591797,-502881.158203,-73066.454102,295848.849609,2067.936890,-50104.501953,243436.421875
388,1,0.087421,-0.109375,0.134537,-167967.385498,-332826.621094,-39521.400391,250589.974609,6216.395142,-44215.318848,248693.468750
389,1,0.073041,-0.094995,0.134537,-57369.067139,-253365.847656,-13918.111084,153900.772461,20596.770996,-27836.142090,276914.625000
390,1,0.058662,-0.080616,0.134537,35245.269653,-155306.028320,8656.528931,60027.773193,16360.047302,-7315.117378,273077.093750
391,1,0.044283,-0.066236,0.134537,110923.864746,-74651.429688,20795.104126,-14858.513997,22178.178711,1834.982666,238016.281250
392,1,0.029903,-0.051857,0.134537,246045.868652,80342.675781,75380.827148,-169582.222656,-10334.649414,26655.683105,222887.000000
393,1,0.029903,-0.051857,0.000000,265685.268880,79911.260417,124872.958333,-191687.819661,28139.898600,-62940.910807,705562.375000
394,1,0.044283,-0.066236,0.000000,196253.354004,-6106.964844,54944.208496,-82739.671875,-5443.609039,-9234.332153,428531.906250
395,1,0.058662,-0.080616,0.000000,72233.579224,-120167.565430,12596.326416,23764.705078,-18815.243652,20012.139648,225065.109375
396,1,0.073041,-0.094995,0.000000,-35695.880127,-212654.035156,-17542.821045,122704.964844,-11450.781982,29559.974121,214186.500000
397,1,0.087421,-0.109375,0.000000,-105250.598267,-261870.349609,-43330.630188,203177.724121,-1509.047592,33973.100830,657572.375000
398,1,0.101800,-0.123754,0.000000,-226925.540365,-319276.235677,-49549.281087,259718.676432,-317.541125,68206.038411,294716.375000
399,1,-0.138133,0.116180,0.019220,13391.505310,-89893.697266,39127.789795,-327309.745117,14188.262939,-2242.152130,459234.562500
400,1,-0.138133,0.116180,0.038439,-13374.036649,-94280.985951,39386.208196,-281576.937500,7995.706288,3747.019764,524830.437500
401,1,-0.138133,0.116180,0.057659,-25835.114509,-111649.267795,30001.518121,-309196.781250,4729.882921,-15389.261854,682156.062500
402,1,-0.138133,0.116180,0.076878,-7890.300642,-141612.450544,21477.289621,-334461.364955,-30.122724,10959.123779,805318.812500
403,1,-0.138133,0.116180,0.096098,-38197.338965,-117571.193896,27485.300769,-298006.449219,-10165.221533,-2328.678943,842186.812500
404,1,-0.138133,0.116180,0.115317,-53755.954989,-140154.823331,20207.049427,-312865.995028,-25111.816029,-2084.500227,710198.250000
405,1,-0.149265,0.101481,0.134537,-146944.208333,-445323.072917,-41441.965902,-248743.252604,-7363.518402,-37284.150553,711991.687500
406,1,-0.158839,0.085724,0.134537,-159282.029297,-539103.078125,-41209.143555,-260099.078125,14112.485107,5148.264488,439310.843750
407,1,-0.166756,0.069073,0.134537,-122063.943359,-494793.536458,-39728.835612,-222001.210938,24564.889567,13433.446086,545075.562500
408,1,-0.172933,0.051700,0.134537,-90078.515625,-462505.632812,-45496.367188,-181544.066406,27895.149414,34825.178955,398738.718750
409,1,-0.177305,0.033788,0.134537,-47499.276367,-298294.265625,-41707.940716,-165641.064453,21188.282715,66899.511719,405065.093750
410,1,-0.179827,0.015524,0.115317,237804.631037,-138407.899489,26226.468484,-78334.540838,-17659.194902,17855.175676,333552.375000
411,1,-0.179827,0.015524,0.096098,237689.139008,-125908.373627,34545.315308,-95708.268311,-6250.399704,13970.146820,469324.656250
412,1,-0.179827,0.015524,0.076878,254567.206221,-120014.863421,42025.184152,-91264.996791,-8622.317862,3233.276002,450131.968750
413,1,-0.179827,0.015524,0.057659,269762.705092,-120319.341905,51254.605903,-69468.698296,4008.008152,-7234.139454,450131.968750
414,1,-0.179827,0.015524,0.038439,240500.782452,-137934.408447,33341.867920,-81934.874939,19109.985779,-18715.273291,223274.687500
415,1,-0.179827,0.015524,0.019220,268278.415167,-120399.864990,24404.724567,-55600.966492,24924.255725,-20003.149231,448849.187500
416,1,-0.177305,0.033788,0.000000,-44870.450684,-356567.277344,-23063.523926,-189115.562500,-6208.343201,-51715.495117,485177.531250
417,1,-0.172933,0.051700,0.000000,-105726.358154,-429438.335938,-20643.885498,-212460.970703,-6388.206005,-13276.233627,403039.625000
418,1,-0.166756,0.069073,0.000000,-143840.297852,-459659.980469,-42204.937012,-238977.302734,-1720.097687,3431.596756,637249.562500
419,1,-0.158839,0.085724,0.000000,-174395.609619,-484463.183594,-61264.279297,-268660.238281,763.804916,19995.903442,713473.312500
420,1,-0.149265,0.101481,0.000000,-140348.139160,-457510.792969,-85581.748108,-287905.644531,19228.900452,46474.612061,701614.312500
421,1,-0.037478,0.015524,0.115317,178810.227840,-400839.733474,-9343.753329,25730.924248,21556.166607,6458.993673,697826.000000
422,1,-0.037478,0.015524,0.096098,141352.169876,-371351.863770,-22309.740036,63499.189693,15470.334244,5678.943099,339804.187500
423,1,-0.037478,0.015524,0.076878,147858.847961,-365505.370703,-17037.500000,50270.535226,10866.643280,2065.333832,640414.687500
424,1,-0.037478,0.015524,0.057659,142537.905310,-358544.165625,-12137.608594,41532.313086,-1939.229778,-2082.703601,291309.218750
425,1,-0.037478,0.015524,0.038439,161966.237498,-397700.078776,-16838.495850,17213.499461,-19974.742861,406.185206,665612.125000
426,1,-0.037478,0.015524,0.019220,151856.087891,-400433.172476,-21017.250892,10933.576097,-31396.410298,-4702.806673,663409.750000
427,1,-0.057813,0.015524,0.000000,390575.635417,-26542.629232,45970.454386,-6362.905273,-43417.691406,-8570.719889,380737.718750
428,1,-0.078149,0.015524,0.000000,390663.062500,3295.289124,8834.272594,8460.802254,-6444.846252,-7146.983353,379262.343750
429,1,-0.098484,0.015524,0.000000,383054.656250,-1975.277234,-3364.042867,-2652.434896,1813.815430,-6276.089884,379262.343750
430,1,-0.118820,0.015524,0.000000,385840.914062,-2747.031128,-4879.002930,-2857.690918,2917.127625,-3296.515381,389458.062500
431,1,-0.139155,0.015524,0.000000,397669.828125,-2767.152100,-1322.895630,-2172.345520,3874.497803,-230.678406,389458.062500
432,1,-0.159491,0.015524,0.000000,422595.648438,-2026.664673,13009.911621,-1805.835266,23463.723267,-1141.584778,486937.281250
433,1,-0.159491,0.015524,0.134537,441218.710938,-431.888275,46790.518311,-7017.711304,-33312.850342,-1787.452637,377503.593750
434,1,-0.139155,0.015524,0.134537,400649.429688,-2516.641556,5060.814819,-5612.188141,-3311.768951,5476.257812,387950.812500
435,1,-0.118820,0.015524,0.134537,389842.679688,-3914.347168,-3939.848267,-3811.379456,3630.322937,3323.806244,387950.812500
436,1,-0.098484,0.015524,0.134537,379759.640625,-4272.910156,-4612.332153,-4865.356537,3592.663605,2600.260864,379888.687500
437,1,-0.078149,0.015524,0.134537,386581.453125,-3597.171066,4363.736450,-3715.680229,3877.984741,935.302170,380036.312500
438,1,-0.057813,0.015524,0.134537,397340.304688,-32010.663940,13295.464996,-8323.150269,36522.712646,4621.546997,598907.375000
439,1,-0.123754,0.101800,0.000000,218902.510254,74060.446045,106518.437256,-231507.592773,18059.966187,-45272.635742,859040.812500
440,1,-0.109375,0.087421,0.000000,271876.790365,42568.316732,64938.660889,-150554.664551,-1624.931824,-5324.504069,537832.875000
441,1,-0.094995,0.073041,0.000000,166644.484375,-26138.857422,10142.111084,-71873.598755,-10591.698364,17870.134521,180091.093750
442,1,-0.080616,0.058662,0.000000,63867.612305,-118814.853516,-9330.086914,24058.550659,-14926.468262,30163.602051,163572.109375
443,1,-0.066236,0.044283,0.000000,-35187.946289,-201925.949219,-29224.781250,111754.330688,-10569.372681,34800.588867,243507.250000
444,1,-0.051857,0.029903,0.000000,-142217.882812,-299761.787109,-52069.905273,192053.999023,-5045.550964,26367.620117,169293.093750
445,1,-0.051857,0.029903,0.134537,-115784.005859,-282188.524740,-61135.806966,188500.041667,-1960.000895,-23812.396647,124783.054688
446,1,-0.066236,0.044283,0.134537,-53211.384766,-206478.528646,-27796.643066,136111.139323,-1916.259176,-20129.089752,156436.390625
447,1,-0.080616,0.058662,0.134537,14639.576660,-148273.132812,-7907.486908,66830.551636,14393.303345,-18694.122803,293105.125000
448,1,-0.094995,0.073041,0.134537,104359.463867,-59629.961914,10207.978088,-19172.394775,22778.570068,-10532.671875,153661.218750
449,1,-0.109375,0.087421,0.134537,192636.010742,42877.246094,35317.765625,-105360.357910,25946.880371,1573.302612,259963.875000
450,1,-0.123754,0.101800,0.134537,249876.117188,149322.206055,67812.889648,-225330.125977,5689.679443,28035.893555,169483.781250
451,1,0.138133,-0.116180,0.019220,-7278.379541,-127094.187891,42715.919165,-321544.368750,-8037.291833,3437.980762,634307.375000
452,1,0.138133,-0.116180,0.038439,-56316.389006,-143109.792187,51814.133984,-293842.123437,1204.584491,7011.203156,673739.625000
453,1,0.138133,-0.116180,0.057659,-62273.480835,-140656.347070,42539.956097,-297270.783594,1506.106366,10445.997400,414792.593750
454,1,0.138133,-0.116180,0.076878,-50772.644016,-139431.686849,50982.822944,-311449.119792,3902.066121,438.716693,446108.375000
455,1,0.138133,-0.116180,0.096098,-56259.664205,-132163.308377,45874.902072,-288603.631076,7929.726457,-1908.086758,393626.625000
456,1,0.138133,-0.116180,0.115317,-30296.880398,-160301.606988,38997.428602,-307783.161458,17334.990238,-13171.790988,487076.843750
457,1,0.149265,-0.101481,0.134537,-147983.195312,-471682.354167,-43277.083496,-282839.309896,14135.622884,30248.771322,671623.125000
458,1,0.158839,-0.085724,0.134537,-152877.980469,-544234.796875,-35049.229004,-256394.510417,-10686.311462,388.314128,773173.250000
459,1,0.166756,-0.069073,0.134537,-123421.550781,-503463.286458,-30376.573079,-237953.187500,-6177.596995,-5952.053060,433227.718750
460,1,0.172933,-0.051700,0.134537,-92159.309896,-458221.703125,-28774.837687,-201889.572917,-19785.704915,-32531.794108,472195.718750
461,1,0.177305,-0.033788,0.134537,-35666.045410,-335105.095703,-35857.185181,-189194.486328,-4679.924469,-43955.706299,407297.531250
462,1,0.179827,-0.015524,0.115317,247218.861220,-154113.807834,26563.191501,-108073.554470,24334.658854,-28015.816922,300410.312500
463,1,0.179827,-0.015524,0.096098,253503.993707,-144976.175781,45283.056885,-95371.016222,16484.884901,-15777.111423,426536.750000
464,1,0.179827,-0.015524,0.076878,256536.546901,-143814.400042,41045.592420,-96258.436384,3804.384135,-4879.671958,426536.750000
465,1,0.179827,-0.015524,0.057659,259969.235914,-154076.211941,41436.654972,-89770.253092,-7167.967261,5661.586978,441420.281250
466,1,0.179827,-0.015524,0.038439,263262.768359,-143789.462985,44057.281116,-71395.350439,-20156.294156,15260.188242,432938.000000
467,1,0.179827,-0.015524,0.019220,245383.454753,-161546.915609,33567.278086,-110478.964437,-26670.355225,35238.341141,306201.250000
468,1,0.177305,-0.033788,0.000000,-11107.106653,-364849.406250,-33406.821106,-192822.634766,3233.772095,46478.082275,532292.500000
469,1,0.172933,-0.051700,0.000000,-107025.719401,-471631.177083,-23758.872396,-223841.377604,14920.343628,20245.678569,410377.281250
470,1,0.166756,-0.069073,0.000000,-124046.408854,-472616.062500,-27339.936686,-241462.213542,15416.573079,-3430.911580,455529.062500
471,1,0.158839,-0.085724,0.000000,-189958.103516,-538140.664062,-43511.104492,-289224.847656,3981.572235,-20694.650024,443847.843750
472,1,0.149265,-0.101481,0.000000,-150668.708333,-469821.562500,-39981.237630,-282562.765625,-13018.894613,-39050.918294,463848.468750
473,1,0.037478,-0.015524,0.115317,156474.237386,-461905.180339,-19024.255104,82299.986003,-35722.457703,-15746.122866,729082.437500
474,1,0.037478,-0.015524,0.096098,190818.105824,-416186.651989,-19438.051847,77151.595015,-25171.753449,-9198.933741,751192.875000
475,1,0.037478,-0.015524,0.076878,158772.771796,-400751.780540,-16867.684925,69986.061268,-6632.180433,-7114.083031,748338.250000
476,1,0.037478,-0.015524,0.057659,126567.139258,-420371.148828,-22737.383887,91970.190674,13957.728846,1295.765799,645643.750000
477,1,0.037478,-0.015524,0.038439,142780.550439,-408680.616992,-26814.575488,89595.054187,21567.445153,12871.776917,658658.187500
478,1,0.037478,-0.015524,0.019220,135682.613241,-417710.893392,-29835.602763,88633.081415,27436.139533,9756.243123,622236.937500
479,1,0.057813,-0.015524,0.000000,504776.609375,-39579.090820,65956.810837,1011.689453,57118.415039,11011.135925,435704.250000
480,1,0.078149,-0.015524,0.000000,431479.979167,-57.621826,7919.105387,17745.710734,4823.087728,7589.718262,435704.250000
481,1,0.098484,-0.015524,0.000000,420752.976562,-3914.325684,-4015.181030,7567.146851,-4540.772400,5272.149689,411629.218750
482,1,0.118820,-0.015524,0.000000,411779.171875,-1946.924438,-4004.460938,6528.246704,-7774.493896,2793.805298,411629.218750
483,1,0.139155,-0.015524,0.000000,422481.542969,180.303436,1983.972900,3391.455032,-5281.575928,290.694826,411406.375000
484,1,0.159491,-0.015524,0.000000,427892.414062,6147.394165,10440.072998,-5722.001465,-23430.388062,1586.225849,440204.593750
485,1,0.159491,-0.015524,0.134537,447145.976562,5343.552368,42616.974365,-21282.146851,28974.254822,-6075.666443,373754.781250
486,1,0.139155,-0.015524,0.134537,399424.054688,568.967041,1529.591797,-3769.081303,-690.573013,-4305.437378,429734.406250
487,1,0.118820,-0.015524,0.134537,399159.276042,-4161.174886,-5106.383230,2068.136922,-1095.082827,-2480.667301,412099.718750
488,1,0.098484,-0.015524,0.134537,406690.750000,-4026.385010,-4800.286377,2627.467896,315.325409,-3181.252136,401605.343750
489,1,0.078149,-0.015524,0.134537,415211.867188,7862.238281,4129.278564,5318.513184,-6607.560547,2186.309692,409227.937500
490,1,0.057813,-0.015524,0.134537,476485.859375,294.738770,40342.890625,18189.061198,-40556.105957,8394.630529,409227.937500
491,1,0.123754,-0.101800,0.000000,237766.308594,174157.584961,116617.594727,-230220.431641,-13918.527100,47536.923340,192423.437500
492,1,0.109375,-0.087421,0.000000,245877.623047,46193.496094,62558.982422,-137501.945312,21860.749268,814.771362,236712.593750
493,1,0.094995,-0.073041,0.000000,144325.037109,-71098.325684,21280.891846,-29360.979492,29321.924805,-24035.747559,218430.312500
494,1,0.080616,-0.058662,0.000000,21714.116211,-180038.050781,-9274.946777,74722.872559,22501.187744,-33311.784180,230387.578125
495,1,0.066236,-0.044283,0.000000,-86680.944824,-274229.984375,-31690.584229,173212.143555,13277.004883,-38008.365723,222929.843750
496,1,0.051857,-0.029903,0.000000,-216325.518555,-399878.726562,-67169.084961,265864.844727,-5381.033051,-24642.158691,601928.312500
497,1,0.051857,-0.029903,0.134537,-192256.239095,-443517.395833,-92470.582682,257005.462891,18062.619080,513.524089,687021.250000
498,1,0.066236,-0.044283,0.134537,-137042.428223,-307178.914062,-35346.060059,219768.521484,3817.904633,19523.222656,237840.890625
499,1,0.080616,-0.058662,0.134537,-26911.522705,-208038.816406,-11444.525238,114540.561523,-15998.991943,19112.958740,206769.671875
500,1,0.094995,-0.073041,0.134537,64299.936768,-105064.330078,14199.617920,20226.913086,-20015.760986,8965.144058,173853.875000
501,1,0.109375,-0.087421,0.134537,130024.831543,-62246.651855,45997.447845,-31317.757812,-10396.753616,-5202.290855,189528.203125
502,1,0.123754,-0.101800,0.134537,240784.147461,116245.826172,79290.975586,-203989.566406,-8635.341309,-28665.271545,884656.750000
503,1,-0.015524,0.037478,0.019220,136065.775309,-644490.618490,15537.946899,-177954.061442,-41426.060760,-10049.058314,1397113.000000
504,1,-0.015524,0.037478,0.038439,107081.291211,-651840.614062,-7879.089844,-189871.645703,-24121.581866,-13121.769739,590374.312500
505,1,-0.015524,0.037478,0.057659,93432.243359,-659574.219531,-14936.264136,-197542.099219,-4151.076636,5692.750650,701811.000000
506,1,-0.015524,0.037478,0.076878,94087.802517,-654177.801215,-16590.713650,-203705.702691,7648.837850,17085.542006,630717.187500
507,1,-0.015524,0.037478,0.096098,117258.734484,-689753.429688,-12856.209337,-196864.284071,23642.944689,27288.740953,663645.562500
508,1,-0.015524,0.037478,0.115317,132387.672363,-738445.958203,-14705.543457,-177890.328906,41807.930029,36315.318042,1278289.375000
509,1,-0.015524,0.057813,0.134537,-17753.693298,-1439288.125000,-109540.386230,-42890.841919,6430.963013,66344.271851,1498687.750000
510,1,-0.015524,0.078149,0.134537,1924.762756,-1322581.937500,-7534.818115,-7618.052151,6436.238647,870.880188,1303408.250000
511,1,-0.015524,0.098484,0.134537,5516.117432,-1315867.312500,5558.130127,-1655.760315,2947.534546,-10437.750244,1303408.250000
512,1,-0.015524,0.118820,0.134537,4174.081787,-1326340.250000,4675.009766,-1913.571716,1875.532104,-12841.327087,1354974.125000
513,1,-0.015524,0.139155,0.134537,3648.377563,-1349916.250000,-37.647095,-2443.962035,991.588135,-20476.145386,1374419.625000
514,1,-0.015524,0.159491,0.134537,-34905.908447,-1442321.531250,-26668.581909,18118.679443,3932.548157,-63686.671875,1395408.750000
515,1,-0.015524,0.179827,0.115317,-140123.390669,-916757.050959,-74313.257280,157849.722923,35027.263848,-77474.259044,1373189.750000
516,1,-0.015524,0.179827,0.096098,-113380.746205,-784564.597834,-70621.762429,175872.779918,23305.133836,-34374.187500,749073.437500
517,1,-0.015524,0.179827,0.076878,-109682.126465,-806893.539062,-86047.647888,182575.621582,19027.469131,-20924.508179,712088.375000
518,1,-0.015524,0.179827,0.057659,-122647.332142,-821564.203125,-86078.963423,151717.938929,7488.361729,16990.132072,816278.875000
519,1,-0.015524,0.179827,0.038439,-135079.753374,-819692.236861,-72912.345858,140415.655118,-11853.276523,43860.783869,722592.437500
520,1,-0.015524,0.179827,0.019220,-124319.823937,-820865.904992,-40376.368990,178046.643085,-27237.643315,74002.592661,837065.375000
521,1,-0.015524,0.159491,0.000000,-69585.929688,-1455567.281250,-101461.101318,53511.068604,-5564.043404,76917.255859,1354305.000000
522,1,-0.015524,0.139155,0.000000,8440.107910,-1351372.406250,-8941.794006,-10929.560455,-3264.779625,24091.205078,1354305.000000
523,1,-0.015524,0.118820,0.000000,4589.844727,-1338326.875000,2424.490112,-8213.130249,-3059.628448,11059.414307,1360987.375000
524,1,-0.015524,0.098484,0.000000,5784.688232,-1333966.468750,4174.804932,-7692.503052,-2319.669983,6826.334229,1331105.250000
525,1,-0.015524,0.078149,0.000000,2666.183167,-1340132.656250,-156.485260,-8120.173340,-1934.298828,-1869.392151,1374047.500000
526,1,-0.015524,0.057813,0.000000,-7083.449646,-1410738.281250,-27085.600250,-28195.212616,-6013.474609,-51937.583496,1272424.000000
527,1,-0.116180,0.138133,0.115317,-310965.783529,-458711.328125,-100224.789876,-139866.813639,-10583.475049,-3057.097473,389060.625000
528,1,-0.116180,0.138133,0.096098,-328455.711719,-493529.021094,-152014.624231,-128084.232910,-12189.201929,-163.067200,662276.187500
529,1,-0.116180,0.138133,0.076878,-365966.692383,-580161.303711,-197119.757324,-95573.278076,3074.300728,8051.554504,662276.187500
530,1,-0.116180,0.138133,0.057659,-351023.006348,-531381.101562,-169850.677002,-100141.671753,-3060.048717,4977.739731,406423.812500
531,1,-0.116180,0.138133,0.038439,-339401.867676,-488113.200000,-152873.052930,-112695.735059,10252.294678,-3286.125414,618107.187500
532,1,-0.116180,0.138133,0.019220,-348884.624609,-507083.863086,-123675.756714,-122045.177637,4793.498618,-9035.340010,509666.218750
533,1,-0.101481,0.149265,0.000000,-260486.275391,-445804.980469,-62400.193237,-337054.757812,44577.826660,33492.401123,754229.437500
534,1,-0.085724,0.158839,0.000000,-89231.134115,-234402.971354,1746.249919,-230497.454427,61179.240885,28158.845540,349889.218750
535,1,-0.069073,0.166756,0.000000,134845.860026,-137024.807292,47337.189372,-108425.664714,76853.102214,14975.008626,466040.750000
536,1,-0.051700,0.172933,0.000000,285335.112793,-51730.561523,57744.028809,43134.783203,57706.780273,3670.999023,517975.375000
537,1,-0.033788,0.177305,0.000000,207652.690918,-62040.317139,60265.462891,218869.343750,-61136.779175,11290.688232,184077.718750
538,1,-0.033788,0.177305,0.134537,-17801.202148,-181625.615723,82056.465698,308210.663086,78851.427490,-7355.450356,1016749.937500
539,1,-0.051700,0.172933,0.134537,326988.176758,-63201.047607,80685.814331,65190.310547,11943.795410,-8730.646500,250917.109375
540,1,-0.069073,0.166756,0.134537,240320.095052,-138330.713867,54704.601562,-50819.595052,-58307.492513,-23055.993490,567608.062500
541,1,-0.085724,0.158839,0.134537,49140.510417,-202237.408854,3555.998698,-169578.203776,-64633.451172,-35316.771077,453395.562500
542,1,-0.101481,0.149265,0.134537,-192663.888672,-347400.898438,-40555.791992,-281794.351562,-57212.507812,-53313.219727,802666.437500
543,1,-0.101800,0.123754,0.134537,-168950.019531,-403254.430176,-56046.295898,211585.747559,-9896.376465,51991.450195,617510.562500
544,1,-0.087421,0.109375,0.134537,-98684.807617,-241739.394531,-27465.307129,173638.519775,-7937.426147,39901.391602,342849.656250
545,1,-0.073041,0.094995,0.134537,-7216.535156,-178273.896484,-12172.727295,90476.869629,-15167.116577,23269.244141,162480.609375
546,1,-0.058662,0.080616,0.134537,88156.144531,-84754.486328,15261.053711,-3033.554688,-14069.225260,3400.323435,166291.187500
547,1,-0.044283,0.066236,0.134537,146231.133789,-25440.642700,33473.254150,-62338.429810,-12548.179169,-3146.755310,327482.625000
548,1,-0.029903,0.051857,0.134537,218966.733073,66533.019531,57049.700684,-151079.659505,3103.340251,-23933.997192,874540.625000
549,1,-0.029903,0.051857,0.000000,266526.312500,113322.877604,133970.277344,-224730.175456,-40055.135742,60096.199870,257645.734375
550,1,-0.044283,0.066236,0.000000,228616.113281,46851.044067,53044.258789,-128923.378906,5672.730286,10508.667725,397092.156250
551,1,-0.058662,0.080616,0.000000,119136.361328,-58495.823608,13784.230957,-31562.019531,18906.724365,-18560.023560,220093.500000
552,1,-0.073041,0.094995,0.000000,24157.185547,-154438.689453,-11742.854980,60524.485352,16186.633057,-30932.245605,165977.781250
553,1,-0.087421,0.109375,0.000000,-79086.963379,-238607.953125,-34018.281738,151423.519531,9955.750244,-36323.873535,313934.031250
554,1,-0.101800,0.123754,0.000000,-117475.978271,-262587.553467,-46284.007324,139908.340454,2484.167603,-2073.355774,529720.750000
555,1,0.123754,0.101800,0.000000,220919.166667,59395.822917,91208.822266,239201.015299,-16818.813802,-36892.716146,533236.062500
556,1,0.109375,0.087421,0.000000,224503.744141,49280.007812,44152.994629,124497.510254,21364.324829,-5710.321594,533236.062500
557,1,0.094995,0.073041,0.000000,114640.801758,-69105.416992,11140.474243,18130.089478,25611.187256,14473.620117,176112.156250
558,1,0.080616,0.058662,0.000000,14959.991211,-167476.681641,-14794.284424,-75739.043823,15948.240479,26004.436523,317538.062500
559,1,0.066236,0.044283,0.000000,-97446.956543,-259356.441406,-49944.214355,-178140.947266,-5019.095245,41425.108887,317538.062500
560,1,0.051857,0.029903,0.000000,-184760.905273,-380880.282227,-109658.114258,-213782.600586,-18282.122009,28411.554688,168988.421875
561,1,0.057813,0.015524,0.000000,415114.187500,-19909.706024,15465.857819,2968.692200,38425.342167,-3668.680542,585358.062500
562,1,0.078149,0.015524,0.000000,389588.411458,-319.957736,3384.183492,3406.520060,5384.791341,-954.514974,388174.625000
563,1,0.098484,0.015524,0.000000,393307.687500,-2624.017822,-5180.943848,6582.557861,4603.156555,-2338.720886,431453.125000
564,1,0.118820,0.015524,0.000000,408131.546875,-3390.158325,-4463.400879,6485.327271,6137.439026,-3583.137695,402057.937500
565,1,0.139155,0.015524,0.000000,425806.843750,1488.612915,7706.172852,11701.154419,1341.979980,-4162.146362,424530.781250
566,1,0.159491,0.015524,0.000000,481540.718750,11101.597412,58606.676575,27148.597900,-34003.334167,-7124.785400,493044.968750
567,1,0.177305,0.033788,0.000000,-42093.094482,-341760.552734,-7100.327667,195984.580078,795.493286,-37332.160278,388357.718750
568,1,0.172933,0.051700,0.000000,-85308.914062,-449225.255208,-26246.045939,214664.278646,15436.356364,-24620.532633,690428.937500
569,1,0.166756,0.069073,0.000000,-139506.787109,-535926.875000,-38252.770020,254989.816406,10933.945801,-7941.899048,729234.000000
570,1,0.158839,0.085724,0.000000,-201585.322266,-545099.046875,-47723.291016,296762.101562,-3788.666260,28236.123291,729234.000000
571,1,0.149265,0.101481,0.000000,-169801.382812,-462106.083333,-52464.748698,293152.505208,-22156.317871,50008.746745,471978.968750
572,1,0.138133,0.116180,0.115317,-4927.356995,-76122.676758,43202.637576,373103.767578,20262.578400,12772.854329,588234.062500
573,1,0.138133,0.116180,0.096098,267.127028,-90517.200304,49467.541124,338255.598090,13379.022782,-5550.595548,751883.437500
574,1,0.138133,0.116180,0.076878,-29034.352139,-114047.001085,33173.222114,325562.168403,6190.323480,8041.217855,750648.937500
575,1,0.138133,0.116180,0.057659,2796.108154,-84441.750000,54254.354523,350601.945312,-3571.765720,6418.339724,861595.937500
576,1,0.138133,0.116180,0.038439,-21952.103418,-105463.072363,41681.053613,334585.671094,-12741.843201,-8445.954687,764085.187500
577,1,0.138133,0.116180,0.019220,-25297.678511,-116443.241832,35488.884544,328165.095170,-19955.849099,10349.004128,567722.250000
578,1,0.179827,0.015524,0.019220,289394.730469,-167436.437586,31691.456482,84317.483665,-33076.879214,-21425.826172,452230.718750
579,1,0.179827,0.015524,0.038439,296014.798828,-140478.150989,51327.611304,64514.258801,-22032.588452,-8293.729581,490426.031250
580,1,0.179827,0.015524,0.057659,293368.532669,-147443.370117,50797.928711,90636.035645,-4188.293213,-3578.610228,490426.031250
581,1,0.179827,0.015524,0.076878,297263.217082,-153847.221096,51873.198107,78354.384332,8583.478271,10338.584630,481361.718750
582,1,0.179827,0.015524,0.096098,298119.681213,-142604.197876,56113.453613,88111.269287,18733.180237,22926.576691,318911.468750
583,1,0.179827,0.015524,0.115317,247936.455945,-169137.626007,26887.815967,109100.174023,19136.491666,31348.657422,546623.312500
584,1,0.177305,0.033788,0.134537,-33156.315959,-308403.572917,-44105.019694,198547.171875,-13697.801768,54011.882161,411042.937500
585,1,0.172933,0.051700,0.134537,-89429.116211,-459235.070312,-42190.816243,215419.125000,-21811.080566,30973.761230,432298.906250
586,1,0.166756,0.069073,0.134537,-106653.224609,-473229.160156,-29077.903870,225055.003906,-11225.027954,16516.199036,683312.187500
587,1,0.158839,0.085724,0.134537,-138200.256510,-486626.510417,-26073.691732,243057.395833,-11051.770365,-9504.633830,435216.312500
588,1,0.149265,0.101481,0.134537,-177245.662109,-558604.703125,-63799.605469,307988.203125,9526.166718,-44228.161621,448861.687500
589,1,0.051857,0.029903,0.134537,-122358.268555,-264011.585938,-40138.383464,-187403.886719,-3605.283223,-24782.281738,417382.843750
590,1,0.066236,0.044283,0.134537,-9637.483887,-186898.097656,-31714.324966,-103395.438141,-3328.930481,-18343.238647,293309.531250
591,1,0.080616,0.058662,0.134537,54771.805013,-152904.067708,-17233.056396,-46023.403076,-7477.936590,-20509.442830,212995.531250
592,1,0.094995,0.073041,0.134537,161203.207031,-46614.645020,9735.665039,61745.673218,-8483.397278,-20921.551025,345633.593750
593,1,0.109375,0.087421,0.134537,216032.197917,-4399.074219,35475.644857,126124.345703,-5262.634713,3973.277710,345633.593750
594,1,0.123754,0.101800,0.134537,245966.510417,86062.423828,102145.398112,279638.524089,34737.548177,66051.877116,257190.265625
595,1,0.159491,0.015524,0.134537,456161.296875,1574.457611,13829.791565,11942.302287,27195.026489,3138.107056,559736.812500
596,1,0.139155,0.015524,0.134537,417734.257812,-2173.163208,-1518.733093,4585.037964,2134.552170,3204.811279,413668.968750
597,1,0.118820,0.015524,0.134537,405722.557292,-4184.934489,-4450.762187,2415.025767,155.173654,2033.127091,407239.062500
598,1,0.098484,0.015524,0.134537,403186.335938,-786.711365,-2363.199097,-1399.573151,2189.413605,2830.156006,392483.406250
599,1,0.078149,0.015524,0.134537,422473.523438,6628.700623,13464.737183,-8501.524384,-8537.766357,5051.379761,388782.812500
600,1,0.057813,0.015524,0.134537,458041.070312,-22017.195801,65258.721191,18342.240479,-56285.872803,929.746826,413277.656250
601,1,0.037478,0.015524,0.115317,139979.205838,-379487.457899,-27870.617608,-74704.612644,-36045.536545,7368.977200,631690.375000
602,1,0.037478,0.015524,0.096098,214064.840332,-350241.355143,-5373.641032,-42662.521118,-34496.526815,-1863.837774,631690.375000
603,1,0.037478,0.015524,0.076878,144426.315395,-410686.670480,-17978.739973,-12861.647851,-8659.988355,5220.188537,529368.125000
604,1,0.037478,0.015524,0.057659,122781.884766,-428657.196615,-34735.378072,-65487.796221,9671.240041,-1257.730600,597755.812500
605,1,0.037478,0.015524,0.038439,149291.804199,-395971.730114,-14101.179188,-45814.834140,18347.079476,-9282.145841,597755.812500
606,1,0.037478,0.015524,0.019220,130380.527197,-440206.374609,-36100.309424,-66841.459052,10293.304468,-20669.272754,563570.437500
607,1,0.029903,0.051857,0.019220,240028.651855,14152.872489,126237.272964,180471.688442,37594.907331,21848.459351,246266.234375
608,1,0.029903,0.051857,0.038439,260744.011719,78393.455078,169798.150553,180339.977376,36713.482585,10525.161275,666701.625000
609,1,0.029903,0.051857,0.057659,266284.839193,80413.498047,174702.328288,177012.150716,13235.158742,6781.191722,407606.468750
610,1,0.029903,0.051857,0.076878,262230.701172,70912.501953,171040.118978,180454.881999,-4352.056946,3215.088348,400266.500000
611,1,0.029903,0.051857,0.096098,259363.047526,83250.067708,165981.564616,183836.151042,-21713.596598,-25415.952545,374565.468750
612,1,0.029903,0.051857,0.115317,276827.192057,66801.653971,130683.702759,187313.340332,-21711.228414,-17765.205465,725418.812500
613,1,0.044283,0.066236,0.019220,172134.331055,-22242.288249,56919.197673,75077.825643,125.842041,8876.401937,168791.468750
614,1,0.044283,0.066236,0.038439,207913.051432,4182.985647,92004.562256,98955.134440,10431.701019,-1108.088638,228881.375000
615,1,0.044283,0.066236,0.057659,198137.857422,4868.664454,97418.964355,96090.331868,5997.523817,3037.318376,228881.375000
616,1,0.044283,0.066236,0.076878,196609.962891,3673.878087,99677.239827,95223.733073,1369.838798,2261.780070,407606.468750
617,1,0.044283,0.066236,0.096098,190281.566406,-2524.494059,83820.102336,95407.460815,-6092.188866,-8877.305135,400266.500000
618,1,0.044283,0.066236,0.115317,202187.669922,1459.762614,62619.596761,96632.339925,6375.516886,-5904.161500,224504.984375
619,1,0.058662,0.080616,0.019220,95814.024275,-97960.553449,18562.653987,-2151.912388,-5842.834778,-385.582380,192846.593750
620,1,0.058662,0.080616,0.038439,111489.761393,-83898.283213,31737.382202,11581.706380,-1948.694338,-2766.005785,231013.718750
621,1,0.058662,0.080616,0.057659,112663.611328,-75371.251653,36409.194987,17157.450765,424.047925,-707.322130,173127.625000
622,1,0.058662,0.080616,0.076878,105557.027995,-74174.968241,37650.253642,16387.747640,2790.588424,1672.507604,164433.359375
623,1,0.058662,0.080616,0.096098,98655.350391,-73776.841797,32991.647778,13411.243799,1160.748926,1874.776245,212270.171875
624,1,0.058662,0.080616,0.115317,112352.486049,-86092.300432,20783.936384,14045.126325,7784.811619,6430.944162,202036.812500
625,1,0.073041,0.094995,0.019220,28335.618583,-159138.737165,-10463.811646,-72061.627999,-9243.803528,-6635.607823,323234.468750
626,1,0.073041,0.094995,0.038439,25979.524740,-159930.967448,-6139.202515,-72476.142171,-2194.616903,-2775.466784,339996.031250
627,1,0.073041,0.094995,0.057659,35007.798665,-144750.731120,-2457.333496,-64125.394613,-2252.192396,-3027.913785,173127.625000
628,1,0.073041,0.094995,0.076878,22244.805664,-153797.345703,-7457.233887,-67299.059896,2206.267829,3629.349129,160359.125000
629,1,0.073041,0.094995,0.096098,19004.936198,-150288.504557,-6005.534973,-68405.409668,1807.934840,4235.661906,307729.000000
630,1,0.073041,0.094995,0.115317,37064.718994,-163151.585205,-10162.452850,-66870.790985,6377.553410,11408.345978,174098.203125
631,1,0.087421,0.109375,0.019220,-89136.363867,-233550.101562,-31792.541522,-172074.267578,-10268.410706,-8971.244476,445731.562500
632,1,0.087421,0.109375,0.038439,-57462.473633,-239003.246652,-36473.169713,-147165.570522,-6531.265817,-10714.832710,339996.031250
633,1,0.087421,0.109375,0.057659,-85987.671155,-231692.453906,-43699.911133,-164557.644531,944.439380,-1671.072949,339996.031250
634,1,0.087421,0.109375,0.076878,-56887.771519,-231418.296317,-40426.499189,-151136.789830,229.750536,1398.168039,331712.375000
635,1,0.087421,0.109375,0.096098,-75853.585352,-207602.127344,-35112.227637,-157099.924805,2055.160571,12659.743774,547295.312500
636,1,0.087421,0.109375,0.115317,-74558.524170,-237150.573893,-36563.813070,-184117.263672,15924.549779,16177.516561,278788.718750
637,1,0.101800,0.123754,0.019220,-158175.556803,-388303.047526,-64881.336751,-223951.933105,1461.183510,-25007.338018,749604.812500
638,1,0.101800,0.123754,0.038439,-161918.194987,-373750.841146,-75267.275716,-227977.014974,-3899.037951,-3274.030970,540625.000000
639,1,0.101800,0.123754,0.057659,-150071.778646,-392665.101562,-86823.253906,-216018.278646,-1983.178385,-13025.314952,192392.781250
640,1,0.101800,0.123754,0.076878,-148691.190104,-372674.330729,-84026.038900,-237586.070638,2806.708516,-6834.053426,192392.781250
641,1,0.101800,0.123754,0.096098,-147598.342204,-385480.915365,-76605.928467,-230527.370605,1879.982808,23549.856038,547295.312500
642,1,0.101800,0.123754,0.115317,-132409.316772,-338661.037598,-57492.898804,-175231.298218,9090.939133,17768.952301,186069.937500
643,1,0.033788,0.177305,0.115317,150628.914028,-52886.455078,97446.282785,-233713.907924,-52062.263916,-4031.711914,968536.937500
644,1,0.033788,0.177305,0.096098,176915.342326,-115340.003743,117695.891602,-258835.438802,-18367.670695,-15393.497233,391468.718750
645,1,0.033788,0.177305,0.076878,167630.349691,-137277.096354,122609.668945,-248670.560547,-1049.756487,-7075.590902,379843.781250
646,1,0.033788,0.177305,0.057659,179611.005046,-125675.744792,129436.965495,-252792.623047,17081.984307,7415.813843,379843.781250
647,1,0.033788,0.177305,0.038439,164962.767090,-152200.382772,94460.473633,-265080.742839,38586.772176,30601.501068,879887.187500
648,1,0.033788,0.177305,0.019220,157425.262974,-98391.052560,96418.267578,-238529.820871,56110.744123,17824.541643,472713.500000
649,1,0.051700,0.172933,0.115317,302715.239886,-31613.228027,102623.837472,-46686.139788,-5520.823085,-21155.727155,287138.437500
650,1,0.051700,0.172933,0.096098,262291.589286,-33599.372838,139377.475167,-79046.432129,6026.168318,-18557.004900,87843.648438
651,1,0.051700,0.172933,0.076878,265787.894741,-21752.628307,155987.661272,-95101.907750,2675.321610,-9119.731027,87843.648438
652,1,0.051700,0.172933,0.057659,271100.530343,-9426.571701,156682.061384,-97961.332031,-4340.658290,-5596.663653,77615.468750
653,1,0.051700,0.172933,0.038439,278699.947684,2413.437099,137519.875000,-88842.423061,-7700.578360,3474.429138,224048.875000
654,1,0.051700,0.172933,0.019220,301163.791853,-28286.882254,113765.375837,-91446.958008,-2673.026106,22602.748535,239685.437500
655,1,0.069073,0.166756,0.115317,225367.166595,-134927.938337,74360.988142,38765.261021,42643.577863,-23700.907218,304438.281250
656,1,0.069073,0.166756,0.096098,232078.826497,-78542.264974,100466.074270,-11183.527832,30114.839681,-5921.100850,333039.062500
657,1,0.069073,0.166756,0.076878,229490.765299,-90412.964999,117960.606578,-17845.475230,11358.520767,-3714.868423,355733.593750
658,1,0.069073,0.166756,0.057659,240168.482422,-89784.118327,114622.536377,-18298.564641,-10835.224731,-1816.711110,347697.937500
659,1,0.069073,0.166756,0.038439,250774.579753,-90742.228455,92467.736745,-2890.535482,-29002.752604,7741.346293,502664.093750
660,1,0.069073,0.166756,0.019220,265738.552694,-122721.961751,68543.279215,18933.018555,-55764.091471,27192.596527,282223.406250
661,1,0.085724,0.158839,0.115317,40774.234701,-237431.688314,14306.755900,168275.085531,48371.316895,-20902.247589,304438.281250
662,1,0.085724,0.158839,0.096098,35072.483073,-215841.949870,31459.474487,154585.067301,35066.790853,-14714.814433,471262.187500
663,1,0.085724,0.158839,0.076878,48294.004883,-219190.458333,39570.182088,149779.797928,9770.647438,-3839.123487,472364.281250
664,1,0.085724,0.158839,0.057659,48937.517253,-219754.090495,34721.830551,150239.451096,-12828.822044,-401.437401,458348.843750
665,1,0.085724,0.158839,0.038439,71571.651563,-194126.905469,30566.705322,145029.518164,-32433.684375,8168.179321,458348.843750
666,1,0.085724,0.158839,0.019220,17392.660211,-248387.191840,12199.396990,200109.024089,-48536.634983,20496.598423,452035.531250
667,1,0.101481,0.149265,0.115317,-200824.282031,-467912.559375,-61110.900513,303775.526562,33296.624707,-27528.663794,513271.531250
668,1,0.101481,0.149265,0.096098,-178115.368490,-398269.815104,-60290.628947,298122.923177,19176.403564,-18449.483175,471262.187500
669,1,0.101481,0.149265,0.076878,-167551.384115,-391054.375000,-66691.827454,302174.196615,3300.147448,-3800.970774,807007.250000
670,1,0.101481,0.149265,0.057659,-171104.508464,-396958.661458,-75489.496928,299093.561198,-8513.146566,5189.531097,807007.250000
671,1,0.101481,0.149265,0.038439,-191457.648047,-407138.759375,-79048.341553,308697.006250,-21751.505420,10630.709167,509990.156250
672,1,0.101481,0.149265,0.019220,-215932.204590,-492612.138021,-71747.267675,290660.048177,-34209.165583,48939.400492,951694.062500
673,1,0.015524,0.159491,0.019220,-56962.444247,-1469117.116071,-81193.720285,-39386.799438,12336.762684,73891.623605,1440759.000000
674,1,0.015524,0.159491,0.038439,-60005.373213,-1434040.447917,-134559.025065,-28035.941986,6280.844772,63764.216797,1277694.000000
675,1,0.015524,0.159491,0.057659,-54226.716231,-1390561.479167,-147030.582357,-34580.174323,-2085.747660,27492.591766,1221787.375000
676,1,0.015524,0.159491,0.076878,-65453.485835,-1402956.031250,-159338.377279,-49748.066823,3205.430959,-25757.305776,1221787.375000
677,1,0.015524,0.159491,0.096098,-72391.927595,-1429592.604167,-143138.094238,-48675.532644,1759.088643,-61042.012370,1310497.000000
678,1,0.015524,0.159491,0.115317,-46357.196934,-1423272.392857,-72025.914712,-32268.658473,-739.167736,-59592.357143,1413047.000000
679,1,0.015524,0.139155,0.019220,-107.641523,-1404357.750000,-14410.703439,-3536.240631,999.781204,22672.095215,1395645.250000
680,1,0.015524,0.139155,0.038439,285.622131,-1418431.937500,-50423.861491,-870.802287,5693.154226,31134.456380,1425600.500000
681,1,0.015524,0.139155,0.057659,3176.637722,-1407755.083333,-62040.796712,-3270.949474,3168.600367,12979.729808,1402686.375000
682,1,0.015524,0.139155,0.076878,192.508158,-1404521.906250,-66583.987956,-4553.891389,1385.536863,-14245.367350,1338363.375000
683,1,0.015524,0.139155,0.096098,-1044.100744,-1403865.062500,-51527.740234,-1450.328379,2198.863363,-34334.815592,1384080.625000
684,1,0.015524,0.139155,0.115317,-1635.209967,-1383797.026786,-20003.890084,1088.213291,-2579.645158,-26419.114816,1343426.250000
685,1,0.015524,0.118820,0.019220,-1238.382983,-1384934.687500,-6236.006217,-3005.941620,1265.943965,9015.050241,1376014.500000
686,1,0.015524,0.118820,0.038439,-1092.008881,-1414252.447917,-23458.347412,-1581.927284,2033.768742,11923.232697,1407854.125000
687,1,0.015524,0.118820,0.057659,-531.561345,-1417612.531250,-33038.007487,-2700.538030,1681.625418,4219.058258,1402686.375000
688,1,0.015524,0.118820,0.076878,-1068.705211,-1418084.322917,-32149.956380,-2880.401978,1336.121328,-9374.896006,1399989.625000
689,1,0.015524,0.118820,0.096098,-1691.220797,-1407561.781250,-22114.794902,-1827.431605,-688.624209,-18785.383301,1385728.250000
690,1,0.015524,0.118820,0.115317,-725.997785,-1369100.258929,-7408.282780,-1050.623319,-2360.233760,-15327.858808,1327245.625000
691,1,0.015524,0.098484,0.019220,-872.255742,-1372615.767857,-6012.824297,-3502.894706,2005.417071,3122.670985,1329032.750000
692,1,0.015524,0.098484,0.038439,-2462.549215,-1411303.677083,-21950.218302,-1535.785919,854.408851,229.964060,1407854.125000
693,1,0.015524,0.098484,0.057659,-1944.911667,-1420714.270833,-31680.842122,-110.565452,136.926111,-990.387269,1409539.750000
694,1,0.015524,0.098484,0.076878,-1958.475515,-1422107.343750,-30856.107259,-669.642647,-35.223974,-3316.234624,1409539.750000
695,1,0.015524,0.098484,0.096098,-2563.262273,-1409875.489583,-19207.307353,-2676.154449,-1964.724584,-9002.993357,1406530.250000
696,1,0.015524,0.098484,0.115317,-607.237758,-1361339.526786,-4692.154837,-2519.967739,-2575.152378,-9805.341622,1311404.125000
697,1,0.015524,0.078149,0.019220,-6379.375096,-1369032.964286,-24433.309852,-1590.823340,3249.914627,-7938.911809,1391563.750000
698,1,0.015524,0.078149,0.038439,-10114.691813,-1414274.000000,-53380.339844,4099.565239,-1026.414775,-12662.840014,1391563.750000
699,1,0.015524,0.078149,0.057659,-9046.260152,-1422247.395833,-64863.973307,9946.954559,-2383.392807,-4985.379042,1403872.250000
700,1,0.015524,0.078149,0.076878,-9617.056600,-1420319.885417,-66213.425456,9817.921611,-2321.185073,4642.079510,1354420.625000
701,1,0.015524,0.078149,0.096098,-10137.773020,-1414129.072917,-52438.053548,3046.837072,-2578.666372,8049.084188,1392488.500000
702,1,0.015524,0.078149,0.115317,-4731.562517,-1363509.473214,-14348.480225,-1619.811754,-2973.223112,411.556383,1384688.125000
703,1,0.015524,0.057813,0.019220,-27029.288940,-1400093.348214,-102406.007185,23028.926344,8220.034243,-51641.775251,1255165.500000
704,1,0.015524,0.057813,0.038439,-39086.584188,-1418865.041667,-140242.097493,43735.663358,-566.794904,-30749.703451,1250268.125000
705,1,0.015524,0.057813,0.057659,-42549.159953,-1441017.343750,-155754.213216,51440.097819,-1927.479696,-8102.652527,1373433.500000
706,1,0.015524,0.057813,0.076878,-38377.199788,-1441446.843750,-154755.399089,48441.959473,-7607.648336,14901.433177,1373433.500000
707,1,0.015524,0.057813,0.096098,-40364.854635,-1432099.166667,-145535.833333,39193.519938,-11965.838888,38285.794891,1301320.125000
708,1,0.015524,0.057813,0.115317,-24281.812901,-1392138.901786,-83476.452768,18750.265904,-9071.101266,45963.670375,1258376.625000
709,1,0.225408,-0.020000,0.115317,30734.301740,-348876.678571,-20237.686000,-85452.589286,2545.764614,215.915320,357753.968750
710,1,0.222759,-0.039843,0.115317,-20153.636911,-207723.253906,1363.772635,-116165.211496,-2052.159453,10705.724409,334538.062500
711,1,0.218366,-0.059375,0.115317,-45032.609061,-95203.303641,18736.378924,-92098.903460,-5262.074981,13795.567308,150508.687500
712,1,0.212264,-0.078442,0.115317,-39328.213196,-37101.371983,29967.166504,-44666.609584,-4579.742848,15785.271205,150508.687500
713,1,0.204500,-0.096895,0.115317,-20287.477478,6265.847656,34497.909180,852.448437,-4515.502505,9575.149782,109925.523438
714,1,0.195137,-0.114589,0.115317,3123.913177,-57506.954987,31463.680603,-12890.191223,-4792.864082,1779.020477,109925.523438
715,1,0.184246,-0.131387,0.115317,12132.091634,-60462.165202,32227.941813,-5222.749797,-7954.482564,6982.598389,134524.406250
716,1,0.171913,-0.147156,0.115317,-18913.869193,-68234.230050,17254.464578,-47159.112898,-11182.726440,-4367.130253,191909.031250
717,1,0.158234,-0.161774,0.115317,-10181.128296,-59887.611816,28003.525543,-42986.325195,-9098.434448,-8913.894836,140338.000000
718,1,0.143317,-0.175126,0.115317,-40024.208035,-167463.908420,23173.811740,-72119.600138,-23716.347154,-14454.456818,140338.000000
719,1,0.127279,-0.187107,0.115317,-90428.451904,-256458.327009,-86.972674,-195847.272879,-22497.890259,-26146.912737,354049.000000
720,1,0.110244,-0.197624,0.115317,-277306.299107,-322865.979911,-59924.092285,-343776.197545,-25949.838135,-56941.515904,506075.250000
721,1,0.092347,-0.206594,0.115317,-475755.683036,-478838.830915,-165714.845006,-351526.648438,1463.477155,-94893.903669,462238.125000
722,1,0.073727,-0.213947,0.115317,-267622.879639,-307893.901001,-136780.698405,-104289.500895,2385.178309,-1133.295817,368340.968750
723,1,0.054530,-0.219626,0.115317,-110943.808943,-102471.290667,-46082.264003,68477.851702,-14716.192243,27503.215783,210469.703125
724,1,0.034906,-0.223586,0.115317,-152772.500781,-283772.762500,-113213.052344,99846.738281,-13155.355420,51780.650000,262455.468750
725,1,0.015008,-0.225796,0.115317,-125113.875767,-439092.912946,-132921.790946,72218.706682,-6438.682774,59407.751395,262455.468750
726,1,-0.005006,-0.226239,0.115317,-145975.749247,-462912.182292,-158711.242920,-49861.737915,5781.266113,64415.599935,263054.625000
727,1,-0.024981,-0.224911,0.115317,-152429.888867,-348912.137500,-133289.798047,-105541.410937,2117.994693,43436.397656,283010.156250
728,1,-0.044761,-0.221823,0.115317,-131790.070312,-178670.725391,-82009.526367,-94138.798437,9544.364001,32952.942969,283010.156250
729,1,-0.064191,-0.216999,0.115317,-194573.129557,-222973.496094,-89467.639323,15886.551860,14537.080892,3085.568034,208613.171875
730,1,-0.083118,-0.210476,0.115317,-440921.593750,-731571.390625,-249216.527995,244506.265137,27008.305806,-36832.680664,939594.125000
731,1,-0.101395,-0.202307,0.115317,-501328.732096,-512130.802083,-158753.430664,504907.869792,6822.534729,-13819.598470,695387.375000
732,1,-0.118878,-0.192554,0.115317,-167961.764445,-270356.410156,-14116.407308,245871.628255,21534.520142,-16654.055461,465532.781250
733,1,-0.135431,-0.181294,0.115317,-23969.756836,-144708.054688,35117.201172,86074.079785,22281.012891,-8763.343503,332835.125000
734,1,-0.150923,-0.168615,0.115317,-42283.898507,-59276.694964,34912.386884,42655.612305,16977.517848,-5996.884905,78035.937500
735,1,-0.165235,-0.154617,0.115317,-28310.696859,-34480.237101,32819.858785,32870.911275,15978.401014,-2110.020243,78035.937500
736,1,-0.178254,-0.139408,0.115317,-35883.347738,-37830.472249,22659.623739,47988.241374,11118.235507,-5317.792236,165530.390625
737,1,-0.189877,-0.123109,0.115317,2081.767365,-32344.460307,30227.887614,6725.032349,8118.825012,-515.201916,91447.210938
738,1,-0.200014,-0.105845,0.115317,-14527.844104,14322.931609,40892.251172,-1469.399609,7362.373853,2317.258832,91447.210938
739,1,-0.208586,-0.087754,0.115317,-37114.829014,-13559.497628,26940.938267,31430.411098,8036.180812,4572.871094,110866.835938
740,1,-0.215526,-0.068976,0.115317,-31611.308350,-47934.308001,22114.508405,54555.349051,1590.609488,6967.742858,230572.890625
741,1,-0.220778,-0.049658,0.115317,-20415.052429,-137314.961609,12930.634705,78586.893066,-2254.640672,5807.352462,262234.375000
742,1,-0.224303,-0.029951,0.115317,9749.953882,-295968.282813,-12242.398120,93178.786719,-1802.426782,6423.444116,416347.312500
743,1,-0.226072,-0.010010,0.115317,50522.950056,-366315.720982,-18731.725996,35798.653224,-4324.436259,4126.648751,439571.156250
744,1,-0.226072,0.010010,0.115317,27920.446680,-382815.343750,-23292.944186,-37222.116797,-2027.930094,1617.258029,365122.281250
745,1,-0.224303,0.029951,0.115317,-4952.077321,-285147.122396,-8301.034648,-100880.059245,-774.841858,-6443.675453,318540.937500
746,1,-0.220778,0.049658,0.115317,-19766.579437,-154681.814779,13025.657308,-98549.467773,4504.883138,-13025.525146,267518.156250
747,1,-0.215526,0.068976,0.115317,-39664.523071,-44014.292969,23740.738342,-53756.667959,2967.327881,-14991.479513,188954.359375
748,1,-0.208586,0.087754,0.115317,-29982.442941,-6436.246443,33348.422865,-16100.045096,449.286089,-5579.308812,112511.406250
749,1,-0.200014,0.105845,0.115317,-2255.168434,-20176.245361,36820.884094,-14139.939240,1317.904831,-3764.013046,142608.750000
750,1,-0.189877,0.123109,0.115317,8429.153656,-55099.731987,27100.424316,-29842.324295,1351.937243,-4791.745936,116262.523438
751,1,-0.178254,0.139408,0.115317,-10459.203868,-31638.471863,23932.791654,-41696.527507,4335.938304,-2027.898013,123650.117188
752,1,-0.165235,0.154617,0.115317,-49880.065299,-37556.325387,18725.242717,-53853.269915,7928.914376,-816.869112,203968.828125
753,1,-0.150923,0.168615,0.115317,-24995.903320,-39707.163365,40716.144610,-16682.215594,8803.987061,-1284.537327,170821.218750
754,1,-0.135431,0.181294,0.115317,-11239.306606,-129790.619420,36147.974679,-42069.364537,15863.940081,14.233198,248572.562500
755,1,-0.118878,0.192554,0.115317,-70494.839307,-224825.853906,19971.841443,-179222.609180,14278.886301,-3319.753516,493780.500000
756,1,-0.101395,0.202307,0.115317,-263255.424805,-245953.103516,-3595.225098,-292766.894531,13698.705009,5800.350990,691605.437500
757,1,-0.083118,0.210476,0.115317,-519747.947917,-403500.726562,-58326.945964,-312463.914062,10250.949913,24569.379628,550587.875000
758,1,-0.064191,0.216999,0.115317,-622937.992188,-394860.570312,-22666.078451,-162972.075195,4807.986908,-23564.059733,455408.562500
759,1,-0.044761,0.221823,0.115317,-526230.427734,-364562.892578,19044.763596,527.413208,-17299.523350,-31454.724304,595494.562500
760,1,-0.024981,0.224911,0.115317,-313711.503348,-467116.085938,44715.349121,115481.170480,-12270.568926,-35229.540091,436904.218750
761,1,-0.005006,0.226239,0.115317,-160315.068359,-524164.794271,82377.267334,29706.718994,-5246.379110,-32092.707540,436904.218750
762,1,0.015008,0.225796,0.115317,-229679.789795,-463970.419922,82005.725861,-75431.514465,2455.002611,-31378.812836,672551.187500
763,1,0.034906,0.223586,0.115317,-473696.419271,-417836.045573,54850.019491,-43164.639181,23896.013159,-24016.113688,690751.000000
764,1,0.054530,0.219626,0.115317,-687947.493750,-437516.187500,6829.709082,101896.680591,19390.991650,-10191.452747,708464.375000
765,1,0.073727,0.213947,0.115317,-627910.505208,-478349.270833,-40614.743917,271453.251139,-20048.158264,-8574.412598,771881.875000
766,1,0.092347,0.206594,0.115317,-428012.323661,-279250.500558,-37393.206874,359678.122768,-25779.149658,37993.076590,665920.500000
767,1,0.110244,0.197624,0.115317,-194423.273996,-247662.252232,-11156.056872,264140.705357,-14619.765520,31943.306920,399670.406250
768,1,0.127279,0.187107,0.115317,-40525.351214,-189676.332589,29116.353271,124205.787667,-15310.541216,8750.404998,405481.250000
769,1,0.143317,0.175126,0.115317,-14530.936030,-80211.626333,44067.877482,24354.208740,-10284.663011,1002.459551,103210.148438
770,1,0.158234,0.161774,0.115317,-50980.286453,-24706.308075,37440.441691,27505.485433,-6083.134533,-4509.482920,103210.148438
771,1,0.171913,0.147156,0.115317,-13812.224784,-25200.536761,36408.433855,47859.114676,-3834.337674,-752.212149,59932.832031
772,1,0.184246,0.131387,0.115317,3035.492554,-68767.509399,24112.811676,31324.332214,-1415.634811,-6463.733723,171097.000000
773,1,0.195137,0.114589,0.115317,-2036.617571,-25588.388777,33407.673915,8670.350516,-4722.284272,-7625.372437,79465.398438
774,1,0.204500,0.096895,0.115317,-11991.417480,-5888.524170,39078.227905,9721.477702,1775.293595,-6261.971293,94053.484375
775,1,0.212264,0.078442,0.115317,-33491.852393,-20758.046094,26057.846082,21316.733984,-6384.006277,-10909.728699,101999.500000
776,1,0.218366,0.059375,0.115317,-39584.017853,-111810.795349,11958.086162,87049.535278,1565.773323,-5646.649754,237718.500000
777,1,0.222759,0.039843,0.115317,-17450.695487,-226219.540737,5368.590603,115402.207031,3948.883756,-9549.913470,237718.500000
778,1,0.225408,0.020000,0.115317,20051.574316,-343938.014062,-7814.572900,75810.713867,3379.540155,-8053.715717,341675.531250
779,1,0.226294,0.000000,0.115317,30916.736938,-412984.195312,-26016.595174,1312.152634,2471.944499,-565.826096,380202.156250
780,1,0.225408,-0.020000,0.096098,27434.427961,-342194.256696,-27036.973672,-77386.693359,-1587.970189,1946.320019,431856.781250
781,1,0.222759,-0.039843,0.096098,-21171.951836,-201941.167969,4691.644964,-104376.236328,-2306.795453,5024.363608,205613.281250
782,1,0.218366,-0.059375,0.096098,-40235.352214,-93804.399068,31264.861959,-78797.029622,-3157.781052,8838.268182,205613.281250
783,1,0.212264,-0.078442,0.096098,-40966.506266,-43395.505920,37647.412150,-40843.240967,-923.646830,12191.688192,127583.218750
784,1,0.204500,-0.096895,0.096098,-23700.296295,26323.743652,50813.163574,15483.319214,-960.142990,3449.825775,127583.218750
785,1,0.195137,-0.114589,0.096098,-6272.640889,-36559.063304,46365.595174,147.432617,-2761.734726,3803.927945,182348.718750
786,1,0.184246,-0.131387,0.096098,-3491.477522,-74159.792960,37902.113647,-27054.818429,-4945.987843,3122.440412,155149.828125
787,1,0.171913,-0.147156,0.096098,-12019.033472,-49593.035742,47409.529199,-44770.645996,-8511.081177,-10526.949219,112467.671875
788,1,0.158234,-0.161774,0.096098,-62897.660296,-72313.215193,43020.134539,-57395.861747,-18992.862130,-17882.930751,146137.359375
789,1,0.143317,-0.175126,0.096098,-53904.904297,-163215.955469,31109.812402,-83207.026172,-24440.231641,-18768.094189,339149.656250
790,1,0.127279,-0.187107,0.096098,-146531.594808,-336359.632812,-20121.673726,-241330.821615,-25974.893810,-32636.560588,339149.656250
791,1,0.110244,-0.197624,0.096098,-382844.533622,-669455.564732,-174975.498326,-455507.772321,-11212.208619,-51471.753069,780031.437500
792,1,0.092347,-0.206594,0.096098,-590752.623047,-1066887.476562,-384864.826562,-362546.035547,-15631.167187,-64308.522266,894253.125000
793,1,0.073727,-0.213947,0.096098,-116143.383789,-190923.611145,-93604.055583,19528.356283,-6265.311549,35081.272949,173683.984375
794,1,0.054530,-0.219626,0.096098,-79707.732259,-63379.587585,-38264.930054,60375.475260,-5351.659978,14865.718821,59386.460938
795,1,0.034906,-0.223586,0.096098,-112995.130078,-208112.768750,-84801.575977,99052.989062,-2318.056384,27252.379199,235162.515625
796,1,0.015008,-0.225796,0.096098,-128154.224374,-428663.773438,-142837.186105,65561.188198,-9034.677403,36115.505650,351888.375000
797,1,-0.005006,-0.226239,0.096098,-154801.920813,-464337.306250,-173767.570312,-34898.799365,2102.765894,36810.377930,351888.375000
798,1,-0.024981,-0.224911,0.096098,-128678.926953,-302200.656250,-121926.505859,-98770.193750,7233.877637,25233.704150,312881.406250
799,1,-0.044761,-0.221823,0.096098,-121632.908482,-151169.556920,-71668.723528,-77552.980050,4734.896685,20371.818377,180345.531250
800,1,-0.064191,-0.216999,0.096098,-101855.126953,-151962.054688,-65401.389697,-38264.902692,9237.795691,20825.947266,126724.398438
801,1,-0.083118,-0.210476,0.096098,-438387.796875,-713375.420759,-309367.515067,256535.594308,-13708.329241,37727.211914,973925.250000
802,1,-0.101395,-0.202307,0.096098,-507065.559570,-477380.389323,-194565.419271,505893.731771,-5558.694550,4226.985779,698324.250000
803,1,-0.118878,-0.192554,0.096098,-193006.621094,-285875.712240,-32181.107849,256126.309896,10854.995611,-8887.812378,698324.250000
804,1,-0.135431,-0.181294,0.096098,-43436.358594,-167866.804492,37920.398120,97674.628223,13384.479426,-7828.693396,140449.812500
805,1,-0.150923,-0.168615,0.096098,-31701.847900,-57102.740275,52560.485677,43211.403219,17482.626654,-3417.191833,127065.273438
806,1,-0.165235,-0.154617,0.096098,-38933.993311,-30679.066602,43284.827393,26220.603979,16893.404492,-7104.298389,215904.265625
807,1,-0.178254,-0.139408,0.096098,-5184.855428,-31618.777507,44077.991984,39641.009481,5069.189880,-5125.800339,221550.078125
808,1,-0.189877,-0.123109,0.096098,3800.231038,-26798.591227,42871.703023,9435.559555,2470.074715,4351.600131,57090.761719
809,1,-0.200014,-0.105845,0.096098,-7615.036098,-15844.569894,44764.931135,2740.516567,5936.947529,5113.560111,97494.742188
810,1,-0.208586,-0.087754,0.096098,-11145.656738,11221.675391,49965.838965,10760.146094,-2126.237378,2441.906433,198716.125000
811,1,-0.215526,-0.068976,0.096098,-18244.134814,-54578.179102,40944.208203,40039.515625,-1403.202767,5212.300573,71740.875000
812,1,-0.220778,-0.049658,0.096098,-21147.697164,-158225.593099,18594.460358,81159.162760,-904.193010,9028.208537,262234.375000
813,1,-0.224303,-0.029951,0.096098,5401.070618,-280331.218750,-10501.301270,90480.423828,1182.396978,5223.998039,261600.265625
814,1,-0.226072,-0.010010,0.096098,18894.223389,-373712.807292,-39086.073730,28513.582148,1199.355794,1576.223183,434349.000000
815,1,-0.226072,0.010010,0.096098,30823.256673,-373792.958333,-34061.411947,-30692.490967,-2503.902842,-987.723014,393580.656250
816,1,-0.224303,0.029951,0.096098,8366.298707,-283294.674479,-12645.065491,-93098.162109,863.029521,-5301.363523,304254.718750
817,1,-0.220778,0.049658,0.096098,-27732.749250,-149800.310547,11554.256173,-88301.280134,638.025835,-7938.221967,277656.156250
818,1,-0.215526,0.068976,0.096098,-29456.095654,-40636.584082,39454.962915,-48702.613208,-1082.771252,-5722.164396,72008.109375
819,1,-0.208586,0.087754,0.096098,-31889.426849,-29165.641907,41232.782337,-34413.129166,4336.467661,-599.568880,72008.109375
820,1,-0.200014,0.105845,0.096098,-793.117564,-3679.927734,48698.769124,-5603.255452,-986.834373,-2881.917450,173585.390625
821,1,-0.189877,0.123109,0.096098,-3717.472056,-40345.468994,34176.510386,-11839.833577,858.591702,-4005.011508,45947.339844
822,1,-0.178254,0.139408,0.096098,3277.634094,-26083.432838,34111.345531,-1875.312042,6400.201267,-680.568771,50204.398438
823,1,-0.165235,0.154617,0.096098,-35264.592630,-28399.005301,31399.166469,-35540.393555,8662.803445,649.645307,203968.828125
824,1,-0.150923,0.168615,0.096098,-9836.187305,-14765.194336,55765.129395,4255.419849,12725.708331,-1445.766223,111743.515625
825,1,-0.135431,0.181294,0.096098,-7607.644336,-97752.693750,55158.371875,-34993.200000,6355.887024,-2278.553076,241258.296875
826,1,-0.118878,0.192554,0.096098,-67087.478841,-175143.985026,35321.002808,-142736.971680,5353.945094,-5513.417252,316494.781250
827,1,-0.101395,0.202307,0.096098,-289428.707031,-272147.960938,-22005.395671,-291800.899740,10940.263295,13330.530024,493368.937500
828,1,-0.083118,0.210476,0.096098,-525255.143229,-409855.125000,-94735.743164,-296828.872396,10652.186160,14927.437785,789516.937500
829,1,-0.064191,0.216999,0.096098,-613744.284375,-351686.271875,-53877.434277,-172909.390820,-377.755679,4504.784717,722500.312500
830,1,-0.044761,0.221823,0.096098,-493200.528125,-314272.231250,23020.636182,-7104.217969,-16406.624310,-6254.491394,413042.656250
831,1,-0.024981,0.224911,0.096098,-262381.009115,-346640.562500,78268.804850,76985.081543,-10867.133545,-2485.722148,507159.593750
832,1,-0.005006,0.226239,0.096098,-136136.341406,-406683.384375,124161.478516,29046.972754,-13115.139380,-1830.248682,436914.000000
833,1,0.015008,0.225796,0.096098,-202086.207589,-372601.069196,115224.169782,-56319.203230,-4589.912755,8189.697754,470587.781250
834,1,0.034906,0.223586,0.096098,-441490.155134,-318442.774554,49001.391044,-38129.122454,1408.944995,5612.719574,471385.468750
835,1,0.054530,0.219626,0.096098,-663364.117188,-308302.292969,-6777.119690,129212.208435,-4040.305969,1505.601326,619200.812500
836,1,0.073727,0.213947,0.096098,-587272.018229,-388734.949219,-58417.043722,218095.936900,-15176.292725,18430.901667,869335.437500
837,1,0.092347,0.206594,0.096098,-488455.187500,-422933.420573,-101552.638997,315454.674479,-7968.144389,42639.351644,487658.781250
838,1,0.110244,0.197624,0.096098,-227504.320964,-318727.446615,-26350.765299,285215.069010,-9571.241943,16735.457794,784286.875000
839,1,0.127279,0.187107,0.096098,-61861.797241,-192462.669434,33633.351257,134204.159485,-10947.300964,3062.792953,441875.968750
840,1,0.143317,0.175126,0.096098,-30339.305176,-67910.923258,52935.906087,20648.459229,-6416.643322,3208.036924,159843.234375
841,1,0.158234,0.161774,0.096098,-48094.360986,-7551.093750,42969.365771,15754.784586,-11234.435414,-907.036011,55637.093750
842,1,0.171913,0.147156,0.096098,-2572.886182,-27358.488867,42782.481543,29744.491214,-8151.753491,-3374.795221,60296.496094
843,1,0.184246,0.131387,0.096098,-3245.221354,-53957.935832,37214.854326,25473.659505,-3771.557337,2273.447144,79465.398438
844,1,0.195137,0.114589,0.096098,3653.738851,-26479.725952,45740.251465,-3966.048340,-1841.609578,1045.257416,94053.484375
845,1,0.204500,0.096895,0.096098,-16172.766113,-38104.230338,42870.254839,14566.106724,-2301.187988,-4255.461103,94053.484375
846,1,0.212264,0.078442,0.096098,-41195.905762,2629.929115,41337.481308,8247.029053,-538.630253,-9810.485657,91850.726562
847,1,0.218366,0.059375,0.096098,-49800.301514,-108421.198451,22087.476837,83153.276786,1980.591570,-8336.194981,237718.500000
848,1,0.222759,0.039843,0.096098,-10176.980643,-212702.343192,3484.852622,105413.671317,-3751.443372,-4661.165645,355703.125000
849,1,0.225408,0.020000,0.096098,20629.160742,-347284.621875,-24269.278418,73454.583203,-1677.632739,-3496.868152,355703.125000
850,1,0.226294,0.000000,0.096098,30682.913783,-399526.660714,-43510.961914,815.033482,-317.587677,953.035977,488799.156250
851,1,0.225408,-0.020000,0.076878,21492.585859,-334301.602679,-21960.078330,-74691.108817,523.312413,-1085.967149,437106.062500
852,1,0.222759,-0.039843,0.076878,-22064.280324,-201219.479167,5419.894592,-100322.425130,-1463.555513,1312.159724,320913.250000
853,1,0.218366,-0.059375,0.076878,-39352.373861,-91858.276693,34104.037964,-74904.191406,-1176.382643,2567.332243,225005.062500
854,1,0.212264,-0.078442,0.076878,-42363.920247,-49630.555216,43732.796834,-42159.547038,-2131.401803,4026.556201,129751.882812
855,1,0.204500,-0.096895,0.076878,-30287.392639,29505.415405,63853.709961,14938.063721,-2655.808151,4019.238590,125039.796875
856,1,0.195137,-0.114589,0.076878,-17371.480347,-33946.440125,49481.775553,-6964.486898,-511.615114,422.978134,84876.257812
857,1,0.184246,-0.131387,0.076878,-1115.359759,-92664.755702,46895.920637,-51832.068708,-2855.128669,-5159.031233,227583.656250
858,1,0.171913,-0.147156,0.076878,-28879.203836,-45777.425293,57719.253210,-43970.596875,-9631.023651,-3982.948669,122826.218750
859,1,0.158234,-0.161774,0.076878,-45582.684715,-75510.341390,57078.896484,-60533.546712,-3000.885793,-3209.125305,131919.281250
860,1,0.143317,-0.175126,0.076878,-61510.014771,-221230.012370,34562.744954,-111296.754232,-3041.220614,-6575.455767,238531.265625
861,1,0.127279,-0.187107,0.076878,-151161.919824,-335623.529687,-28476.571680,-256230.708594,-3063.949034,-7151.395471,481911.437500
862,1,0.110244,-0.197624,0.076878,-406351.425153,-701318.928571,-247192.666024,-498915.750000,783.870211,-18212.213274,821329.562500
863,1,0.092347,-0.206594,0.076878,-535203.076172,-889862.821875,-404772.157031,-306038.927734,-20353.921191,1283.575000,1568994.750000
864,1,0.073727,-0.213947,0.076878,-97536.047070,-165449.682227,-77035.535059,7732.199023,930.621802,1118.597559,173683.984375
865,1,0.054530,-0.219626,0.076878,-61030.826904,-27791.907471,-26646.819702,47524.782959,-3263.269165,15067.057495,59386.460938
866,1,0.034906,-0.223586,0.076878,-119759.811719,-210085.739063,-86478.768085,101245.385156,-8317.490155,8387.778857,214051.437500
867,1,0.015008,-0.225796,0.076878,-111245.971758,-378926.043527,-127532.010045,57087.141392,3160.131926,6255.972761,398672.250000
868,1,-0.005006,-0.226239,0.076878,-127064.901367,-403820.664062,-142594.632487,-55397.753825,4035.124442,15581.892502,284919.437500
869,1,-0.024981,-0.224911,0.076878,-125795.027344,-310917.834375,-116486.671289,-93599.015234,2536.665675,13267.082202,284919.437500
870,1,-0.044761,-0.221823,0.076878,-100459.744792,-129540.320396,-57664.233887,-92640.116862,5240.609823,6205.288656,180345.531250
871,1,-0.064191,-0.216999,0.076878,-111283.583008,-132290.770103,-63986.495036,-40272.749105,5068.867854,3078.479818,94421.843750
872,1,-0.083118,-0.210476,0.076878,-449224.469401,-690472.055990,-315848.412760,270019.181234,-12456.738139,9162.867391,1303229.500000
873,1,-0.101395,-0.202307,0.076878,-507207.788737,-574020.316406,-239173.259257,511275.257812,-15594.704328,12462.522283,735907.312500
874,1,-0.118878,-0.192554,0.076878,-209800.571615,-311049.276042,-48777.733053,283444.562500,-197.772044,914.211690,487082.968750
875,1,-0.135431,-0.181294,0.076878,-51895.777930,-182348.736084,34117.966357,115232.286719,945.828101,3286.212646,140449.812500
876,1,-0.150923,-0.168615,0.076878,-36571.315709,-82688.960972,60549.274763,40418.272949,2884.731923,3478.228952,126873.109375
877,1,-0.165235,-0.154617,0.076878,-42467.795573,-34661.795817,59403.835002,37717.480713,3998.223587,-8955.719645,95419.656250
878,1,-0.178254,-0.139408,0.076878,-9199.277262,-42507.837774,47610.090556,43858.148544,-1119.636630,-3417.385737,95419.656250
879,1,-0.189877,-0.123109,0.076878,6240.952832,-10824.253082,51252.902246,2011.542023,2357.373132,-2498.834558,109242.593750
880,1,-0.200014,-0.105845,0.076878,-8930.492969,-11497.905957,46453.456183,-11256.577539,-546.153949,-1201.259705,138273.546875
881,1,-0.208586,-0.087754,0.076878,-22403.687866,-45541.240967,46719.516052,32739.037129,514.084763,2355.782628,110626.820312
882,1,-0.215526,-0.068976,0.076878,-24848.259705,-62930.392578,43604.324748,48652.478298,-1175.375420,2166.147439,235999.484375
883,1,-0.220778,-0.049658,0.076878,-19729.923035,-157335.169271,14826.211629,84854.513672,-1771.279064,1404.181773,284931.218750
884,1,-0.224303,-0.029951,0.076878,6509.806152,-275625.644531,-14464.560913,89485.057292,-3743.753774,1995.783945,251866.640625
885,1,-0.226072,-0.010010,0.076878,27742.857471,-351742.518750,-29943.706445,37626.034717,-1896.532819,4051.990073,381294.031250
886,1,-0.226072,0.010010,0.076878,34326.302930,-368084.371875,-30059.176367,-26997.443994,-769.632684,83.031432,401679.437500
887,1,-0.224303,0.029951,0.076878,12971.551056,-278634.992188,-12187.191203,-87352.551432,-782.186391,-498.942535,301647.718750
888,1,-0.220778,0.049658,0.076878,-18806.687429,-162954.965820,13046.671305,-85702.794596,-1173.574852,-161.769063,271106.718750
889,1,-0.215526,0.068976,0.076878,-30772.224592,-66954.729911,36407.817174,-58148.536970,583.459000,-2261.880313,229791.625000
890,1,-0.208586,0.087754,0.076878,-29356.625192,-24095.368583,45725.160278,-32553.589076,-2876.008508,-3609.068107,86361.015625
891,1,-0.200014,0.105845,0.076878,-11236.888590,-11065.980794,51023.202637,-7293.032878,1091.086507,-2743.591438,86361.015625
892,1,-0.189877,0.123109,0.076878,1057.706746,-37842.183578,39049.709269,-9017.104279,1220.303157,-1114.757886,50204.398438
893,1,-0.178254,0.139408,0.076878,-13225.916815,-32991.704962,35975.047852,-20295.942590,3031.519202,109.692255,50204.398438
894,1,-0.165235,0.154617,0.076878,-46065.879535,-1421.502734,47419.440430,-15489.380457,987.061438,-5328.228772,194027.812500
895,1,-0.150923,0.168615,0.076878,-7158.075684,-15010.561707,66963.975098,17798.151184,-2231.874130,-1906.101868,111743.515625
896,1,-0.135431,0.181294,0.076878,-12694.895671,-75224.281860,62562.942708,-38778.836304,4594.993919,5738.743378,212795.015625
897,1,-0.118878,0.192554,0.076878,-84876.313232,-188856.840820,43095.830139,-142838.801025,7642.982117,9582.680939,316494.781250
898,1,-0.101395,0.202307,0.076878,-293783.700684,-318380.083333,-31818.292399,-311690.656250,3667.495860,-602.049479,766386.437500
899,1,-0.083118,0.210476,0.076878,-504689.664062,-435867.148438,-99749.036133,-282701.419271,3051.360905,5885.022298,722500.312500
900,1,-0.064191,0.216999,0.076878,-520645.433036,-311470.438616,-33433.153599,-147380.128348,-9270.519656,-407.166914,722500.312500
901,1,-0.044761,0.221823,0.076878,-460437.772135,-296087.006510,14350.623454,9285.405762,-9715.778371,-2751.252487,413042.656250
902,1,-0.024981,0.224911,0.076878,-272268.426339,-357784.158482,72700.213379,80064.065709,-12211.832546,-4079.148054,436914.000000
903,1,-0.005006,0.226239,0.076878,-154758.056315,-395634.604167,122036.629232,34149.344035,-13052.155599,-253.983948,480371.093750
904,1,0.015008,0.225796,0.076878,-196303.531684,-359301.046875,107101.661513,-69035.030084,2049.751461,2754.087236,446750.250000
905,1,0.034906,0.223586,0.076878,-457846.171875,-290044.572917,46535.055664,-25091.201823,-315.591761,5868.384069,446750.250000
906,1,0.054530,0.219626,0.076878,-642069.453125,-306778.601562,-28285.693604,125146.430908,-1181.347504,1359.874443,534573.562500
907,1,0.073727,0.213947,0.076878,-571503.114583,-392925.852865,-79681.567383,190447.937836,-8676.038859,1504.210677,312376.406250
908,1,0.092347,0.206594,0.076878,-494778.822917,-470115.898438,-124918.563477,307026.484375,-2588.602961,10089.449528,784286.875000
909,1,0.110244,0.197624,0.076878,-232649.151042,-334280.647135,-32753.239380,294201.481771,-4127.024846,5561.153259,792708.750000
910,1,0.127279,0.187107,0.076878,-68150.245667,-189001.314941,34066.239746,133889.126831,-5254.957527,1439.077303,441875.968750
911,1,0.143317,0.175126,0.076878,-12491.327441,-53161.567090,62269.976172,16160.920996,-8181.073810,-3232.540372,164349.109375
912,1,0.158234,0.161774,0.076878,-56382.780770,-30463.508719,45380.026829,32656.450830,-7988.627145,-2582.696646,71349.609375
913,1,0.171913,0.147156,0.076878,-8643.913684,-12868.946631,49505.057031,23583.562250,3843.700598,5513.335669,60296.496094
914,1,0.184246,0.131387,0.076878,9773.817464,-48558.056681,43976.116720,22472.667806,4196.947495,-3194.628021,66948.890625
915,1,0.195137,0.114589,0.076878,12746.055257,-36276.277445,48970.979248,-463.437826,3364.862823,-2779.952085,204428.500000
916,1,0.204500,0.096895,0.076878,-24084.644491,-34146.549301,42790.288231,5294.127803,-7952.039996,-3881.529686,77828.398438
917,1,0.212264,0.078442,0.076878,-50648.116797,-26544.510626,39172.339941,45763.106000,736.208228,-1922.921729,129915.328125
918,1,0.218366,0.059375,0.076878,-34707.731396,-78235.883374,35131.860394,78521.800391,-261.077795,-6157.256451,179717.687500
919,1,0.222759,0.039843,0.076878,-15506.852322,-223716.818750,-1091.826782,97764.313281,-1042.720386,-1140.917865,179717.687500
920,1,0.225408,0.020000,0.076878,33825.179982,-326524.916295,-16278.074444,84572.743164,1884.217906,643.240335,409376.562500
921,1,0.226294,0.000000,0.076878,30203.064601,-391367.200521,-36340.358887,2405.357585,688.293250,-2858.390564,409376.562500
922,1,0.225408,-0.020000,0.057659,15520.364362,-334306.214286,-24889.075718,-78495.948103,-2649.198242,-538.724727,397363.750000
923,1,0.222759,-0.039843,0.057659,-22702.630005,-205350.849609,7177.097066,-101734.888672,-1053.134693,-1784.382088,292991.218750
924,1,0.218366,-0.059375,0.057659,-37706.564128,-94791.187052,35494.982920,-79936.117188,1205.382180,-5543.608655,248081.453125
925,1,0.212264,-0.078442,0.057659,-44209.532308,-48416.898783,43709.364344,-41829.827881,-1572.772420,-6319.009783,155110.046875
926,1,0.204500,-0.096895,0.057659,-26470.824036,30026.339722,65521.923828,17552.602905,-945.772194,-4303.174118,110263.273438
927,1,0.195137,-0.114589,0.057659,-17496.672526,-40108.912048,52372.020304,-10205.652344,-1339.476898,-140.544662,94285.750000
928,1,0.184246,-0.131387,0.057659,-307.066694,-87770.493461,45364.130598,-48616.257045,834.019808,2428.617423,238236.281250
929,1,0.171913,-0.147156,0.057659,-21860.127930,-55636.838867,56886.377246,-41853.348242,7452.903058,-1779.937415,137511.765625
930,1,0.158234,-0.161774,0.057659,-51202.926147,-83800.754069,60899.687500,-56361.895833,163.351756,-984.347107,137511.765625
931,1,0.143317,-0.175126,0.057659,-53251.339691,-203200.837565,39429.087962,-110621.313192,2750.881284,8550.557007,140667.203125
932,1,0.127279,-0.187107,0.057659,-154760.563395,-337082.285156,-30736.002207,-262956.916667,13041.081576,10625.059123,416300.968750
933,1,0.110244,-0.197624,0.057659,-489467.060449,-601750.734375,-233370.490430,-556998.681250,5254.031757,13802.096289,821329.562500
934,1,0.092347,-0.206594,0.057659,-449220.971029,-808734.776042,-336945.646566,-294108.260254,-6471.720093,14628.333659,844293.062500
935,1,0.073727,-0.213947,0.057659,-80572.511169,-115822.752360,-39692.645264,3493.525553,-856.279825,11350.410706,61233.460938
936,1,0.054530,-0.219626,0.057659,-75145.438065,-35077.493164,-18260.072807,58254.689575,827.373960,357.309669,214051.437500
937,1,0.034906,-0.223586,0.057659,-111093.013672,-211970.274089,-83568.225423,88411.611979,3670.079910,-13731.952881,197968.656250
938,1,0.015008,-0.225796,0.057659,-125629.429260,-389248.468750,-143165.064779,43964.953593,-4012.103985,-12313.085693,265600.281250
939,1,-0.005006,-0.226239,0.057659,-125888.058268,-398744.169271,-142158.100260,-60530.585002,-580.367194,-12355.117096,375307.093750
940,1,-0.024981,-0.224911,0.057659,-150576.411133,-294496.648438,-123564.898438,-95833.760742,-2775.612044,-11769.651138,246687.734375
941,1,-0.044761,-0.221823,0.057659,-98071.694010,-118457.896606,-54886.907511,-96856.867188,-3672.926613,-6399.295726,246687.734375
942,1,-0.064191,-0.216999,0.057659,-114816.272786,-127930.771444,-63895.813477,-43606.362101,-2992.366956,-70.172908,111691.023438
943,1,-0.083118,-0.210476,0.057659,-446496.177734,-726959.441406,-333451.278320,274092.172119,13857.863655,-18637.578084,1454664.000000
944,1,-0.101395,-0.202307,0.057659,-507572.490234,-553412.953125,-228145.979980,512629.421875,25690.565142,-25577.395264,713461.187500
945,1,-0.118878,-0.192554,0.057659,-204042.207031,-300801.588542,-31125.208171,276621.686198,11823.371516,3596.170227,713461.187500
946,1,-0.135431,-0.181294,0.057659,-54225.585256,-180884.430501,43945.937419,107189.740234,-303.916824,3240.363190,357139.937500
947,1,-0.150923,-0.168615,0.057659,-20978.261096,-51673.373242,71206.217969,27891.807910,-7195.031839,1498.897949,142103.093750
948,1,-0.165235,-0.154617,0.057659,-47486.918945,-31336.291667,51501.196126,37627.021322,-2032.852887,3739.004634,229307.093750
949,1,-0.178254,-0.139408,0.057659,-2829.341309,-36797.937541,44403.679769,38929.195048,-4710.596720,-4625.718424,58166.601562
950,1,-0.189877,-0.123109,0.057659,5994.042643,-25287.994995,48593.169352,1888.743001,-715.160960,-6341.591532,160263.671875
951,1,-0.200014,-0.105845,0.057659,-9890.309326,-26421.911702,48189.584147,1668.667450,-5011.565898,406.461772,138273.546875
952,1,-0.208586,-0.087754,0.057659,-21463.192688,-17242.707868,54472.445766,32536.151033,-1746.325581,-680.175249,110626.820312
953,1,-0.215526,-0.068976,0.057659,-23252.081736,-56201.159505,43078.768026,52525.589071,-1954.677371,-2466.326757,131174.531250
954,1,-0.220778,-0.049658,0.057659,-19418.197540,-158170.196289,15848.258382,89749.813802,-3072.360413,1126.718862,131174.531250
955,1,-0.224303,-0.029951,0.057659,4682.586133,-279586.428125,-11733.233594,86210.561328,-22.841147,2303.980022,325545.593750
956,1,-0.226072,-0.010010,0.057659,9341.978027,-356745.272321,-36028.746373,36024.617780,-1131.614099,3997.952466,328387.968750
957,1,-0.226072,0.010010,0.057659,34411.368652,-374172.152344,-33560.195801,-25492.598419,-1851.355595,8273.923233,342353.281250
958,1,-0.224303,0.029951,0.057659,6533.172852,-277126.246875,-12929.581055,-83479.205078,1388.478979,2674.655469,378431.750000
959,1,-0.220778,0.049658,0.057659,-16573.251831,-164380.115885,11432.894897,-87300.741211,-122.895999,4021.282949,273881.468750
960,1,-0.215526,0.068976,0.057659,-27494.524790,-60598.277669,36002.096171,-55658.386922,-469.745880,4245.430257,229791.625000
961,1,-0.208586,0.087754,0.057659,-26270.290049,-34214.328125,45608.343353,-36974.449951,-1316.352360,1935.894499,90051.664062
962,1,-0.200014,0.105845,0.057659,-9164.674896,-5931.612630,52432.827271,-5445.643799,919.355644,68.952098,90051.664062
963,1,-0.189877,0.123109,0.057659,5237.306234,-24407.597005,43977.083181,-13071.009196,410.402018,-1117.934306,30341.263672
964,1,-0.178254,0.139408,0.057659,-20739.060465,-28367.895833,40719.535400,-30918.202199,-2359.645650,4899.387461,30341.263672
965,1,-0.165235,0.154617,0.057659,-60871.719325,-3003.894113,43433.418309,-27125.484140,234.596026,7343.305568,194027.812500
966,1,-0.150923,0.168615,0.057659,-30457.115740,-3539.708112,64509.419782,-20218.716553,5333.572691,392.237871,176432.578125
967,1,-0.135431,0.181294,0.057659,-14706.043091,-83758.574023,66346.856250,-52250.659033,-2461.357417,6588.333594,370944.875000
968,1,-0.118878,0.192554,0.057659,-95480.992383,-187980.745703,36954.067871,-153348.689844,2575.002274,13666.656799,345450.656250
969,1,-0.101395,0.202307,0.057659,-260552.260393,-307379.275112,-32254.046247,-292301.064732,2993.014138,10899.226754,442506.562500
970,1,-0.083118,0.210476,0.057659,-503807.968750,-417335.945312,-93116.147461,-278138.441406,-102.122839,3376.969523,683930.687500
971,1,-0.064191,0.216999,0.057659,-557089.625000,-346300.169271,-55319.146159,-139631.618490,-10570.129102,-9857.210749,683930.687500
972,1,-0.044761,0.221823,0.057659,-462410.279948,-307755.425781,25818.052002,5657.430501,-17218.762136,1251.076411,531726.312500
973,1,-0.024981,0.224911,0.057659,-295727.259375,-351233.023438,107952.487891,53773.205469,-15348.629883,1914.036304,508682.875000
974,1,-0.005006,0.226239,0.057659,-150209.198103,-371025.459821,132230.612165,11711.825335,-8562.451415,5365.990147,492028.875000
975,1,0.015008,0.225796,0.057659,-207325.713728,-365816.002232,113262.970564,-54834.547991,-8541.257490,6976.185311,446750.250000
976,1,0.034906,0.223586,0.057659,-425230.253348,-299389.765625,48175.464565,-28904.076590,-5513.956813,5262.597726,453831.968750
977,1,0.054530,0.219626,0.057659,-628107.656250,-296716.771484,-18794.442261,127283.821777,-2472.370215,-5938.497711,556922.687500
978,1,0.073727,0.213947,0.057659,-569252.135417,-393778.339844,-74322.049479,186754.810618,142.050055,-6893.801079,773089.000000
979,1,0.092347,0.206594,0.057659,-498528.619792,-482172.114583,-124903.480794,312327.669271,5908.772339,-7263.941518,802003.375000
980,1,0.110244,0.197624,0.057659,-229969.480469,-336419.205729,-30843.984863,295265.388021,1434.848118,-4997.000371,815108.062500
981,1,0.127279,0.187107,0.057659,-56707.456421,-183908.998535,42412.518242,133702.134521,1333.751513,-2762.335657,416066.031250
982,1,0.143317,0.175126,0.057659,-19251.443011,-84728.900251,60257.039734,24471.500000,1731.837664,-4812.213701,94945.531250
983,1,0.158234,0.161774,0.057659,-61888.725477,-19182.152018,49976.399414,19439.146118,2924.291031,-1559.693369,94945.531250
984,1,0.171913,0.147156,0.057659,-18623.268110,-24147.998210,50383.745331,38895.454854,795.987172,-92.685282,201197.078125
985,1,0.184246,0.131387,0.057659,16172.308496,-34991.450342,45593.360876,11133.117480,-1343.069037,1698.973083,114750.312500
986,1,0.195137,0.114589,0.057659,13961.998096,-40416.198071,45610.349219,-6784.491016,2726.978906,6241.351315,204428.500000
987,1,0.204500,0.096895,0.057659,-33469.205505,6122.735413,47992.630493,-14986.152954,3451.549726,-6226.432285,138305.296875
988,1,0.212264,0.078442,0.057659,-53764.882812,-28544.367798,41055.752148,46521.925879,2055.721291,-3486.602130,138305.296875
989,1,0.218366,0.059375,0.057659,-34116.383984,-95691.644775,30245.145996,71922.709766,188.974828,-714.524170,228170.593750
990,1,0.222759,0.039843,0.057659,-23524.933596,-218380.153646,3293.518875,99584.379557,1695.934728,-1224.641296,340069.906250
991,1,0.225408,0.020000,0.057659,19784.208936,-337108.457589,-24044.898651,76542.669224,1673.251165,1019.193939,340069.906250
992,1,0.226294,0.000000,0.057659,23275.890403,-394267.645089,-43349.534738,-3864.781529,3013.947231,-130.713161,397363.750000
993,1,0.225408,-0.020000,0.038439,14093.175391,-336929.676563,-21453.534229,-75762.158398,3532.761322,-3077.521338,416647.437500
994,1,0.222759,-0.039843,0.038439,-11543.385498,-216997.962891,6978.579895,-107029.253255,1776.791168,-5162.142377,367972.687500
995,1,0.218366,-0.059375,0.038439,-34482.948446,-97533.657328,30347.402334,-85065.892253,2709.638501,-7800.083008,251682.000000
996,1,0.212264,-0.078442,0.038439,-48803.838623,-45146.337504,35036.273280,-41054.249390,-233.588638,-7848.429240,155110.046875
997,1,0.204500,-0.096895,0.038439,-18539.805176,29249.959801,58552.772949,17289.313416,-1067.526451,2006.402710,110263.273438
998,1,0.195137,-0.114589,0.038439,-2460.824707,-36244.904099,46554.495605,-6404.745280,3492.694321,-4342.684387,193401.281250
999,1,0.184246,-0.131387,0.038439,15094.996826,-65870.951070,50225.513082,-21154.496338,10374.923848,-598.280535,186765.984375
1000,1,0.171913,-0.147156,0.038439,-29791.110491,-59880.195487,50220.366490,-70681.346610,8526.512926,4270.698277,241192.765625
1001,1,0.158234,-0.161774,0.038439,-59883.805695,-62350.520060,53797.972127,-43243.415080,8722.856618,12771.419423,133584.187500
1002,1,0.143317,-0.175126,0.038439,-48988.873303,-163994.863672,50765.166003,-79245.960400,20959.883887,2146.855078,330089.312500
1003,1,0.127279,-0.187107,0.038439,-156453.545410,-317757.658203,-9918.158691,-274450.560547,15365.921875,24419.376506,804560.937500
1004,1,0.110244,-0.197624,0.038439,-507510.300000,-699386.425000,-232654.467578,-541517.800000,29926.903516,78262.255566,804560.937500
1005,1,0.092347,-0.206594,0.038439,-384956.178571,-758840.906250,-289236.567522,-252022.771205,30524.941336,88549.913435,171292.250000
1006,1,0.073727,-0.213947,0.038439,-138086.103841,-123025.905924,-72560.744389,-14484.299433,15207.088236,22313.751643,157111.140625
1007,1,0.054530,-0.219626,0.038439,-62403.351367,-40472.515723,-24986.899352,48629.403125,2635.000221,-12429.400488,105283.351562
1008,1,0.034906,-0.223586,0.038439,-102477.730859,-137555.847852,-67566.139874,82182.939844,6995.336841,-18909.038281,105283.351562
1009,1,0.015008,-0.225796,0.038439,-122588.799011,-378428.257812,-132294.824382,70223.213175,1319.639053,-28388.721049,271249.437500
1010,1,-0.005006,-0.226239,0.038439,-120107.232218,-408741.500000,-137548.844401,-30434.188334,-3560.994316,-29740.472575,263709.218750
1011,1,-0.024981,-0.224911,0.038439,-146406.440625,-328414.110938,-127691.291406,-94919.422656,-9641.509998,-24551.274219,316566.531250
1012,1,-0.044761,-0.221823,0.038439,-95546.183594,-122207.655762,-52594.660660,-90154.785156,-7232.945557,-21796.041178,225949.390625
1013,1,-0.064191,-0.216999,0.038439,-122845.041667,-164481.489421,-69326.804850,-41900.228027,-6482.234594,-22202.023600,153734.218750
1014,1,-0.083118,-0.210476,0.038439,-462798.439453,-753959.553385,-326281.906250,302555.685547,9231.642619,-28009.899455,1357858.000000
1015,1,-0.101395,-0.202307,0.038439,-505264.303060,-496853.040365,-173049.177327,503213.614583,19136.294011,-6016.526586,713461.187500
1016,1,-0.118878,-0.192554,0.038439,-185159.805990,-289586.600260,-8241.380697,251810.173177,-7358.134466,4607.948970,685173.812500
1017,1,-0.135431,-0.181294,0.038439,-60428.733411,-171870.356055,40737.486230,103889.071484,-17125.875586,8306.275635,178799.531250
1018,1,-0.150923,-0.168615,0.038439,-36266.741414,-79210.400716,55796.281738,32006.348796,-12654.822693,8706.837484,178799.531250
1019,1,-0.165235,-0.154617,0.038439,-47321.882288,-23948.692578,40758.528174,26065.570703,-7973.974515,2700.743292,209941.250000
1020,1,-0.178254,-0.139408,0.038439,-1044.429834,-50945.882568,30319.578809,25483.647656,-4872.573376,3312.446777,194400.078125
1021,1,-0.189877,-0.123109,0.038439,-261.219775,-23950.904687,38444.676489,-3496.611230,1129.360779,978.895801,160263.671875
1022,1,-0.200014,-0.105845,0.038439,1027.768799,-28873.218192,39462.763428,10105.744045,-2744.060896,-5779.727635,227980.734375
1023,1,-0.208586,-0.087754,0.038439,-21008.018520,-12237.805804,49047.792106,34109.493199,494.559147,-8476.901228,64699.488281
1024,1,-0.215526,-0.068976,0.038439,-28206.365365,-59329.833426,36833.430734,55678.787842,-3393.455719,-6167.896942,241629.000000
1025,1,-0.220778,-0.049658,0.038439,-15971.091461,-156769.263672,14838.456380,89051.286784,-1588.301524,-3980.285868,284319.718750
1026,1,-0.224303,-0.029951,0.038439,7200.525757,-272725.757812,-12546.339650,92974.415690,-2661.795914,-3127.020686,367383.687500
1027,1,-0.226072,-0.010010,0.038439,43484.141113,-344105.193359,-24339.656296,50986.283127,-1243.615458,-2501.810680,334972.593750
1028,1,-0.226072,0.010010,0.038439,19955.102025,-359235.419643,-34243.031599,-37013.058507,3832.493578,3731.698635,333809.968750
1029,1,-0.224303,0.029951,0.038439,5821.016565,-276805.059375,-9330.399561,-85062.928516,2603.586615,5441.486694,373274.406250
1030,1,-0.220778,0.049658,0.038439,-20755.654419,-166376.944661,12369.308268,-88101.391927,3119.852168,6549.316930,136064.281250
1031,1,-0.215526,0.068976,0.038439,-32930.189445,-62589.273926,33435.852854,-53208.596965,868.212769,6675.923243,136064.281250
1032,1,-0.208586,0.087754,0.038439,-18954.096167,-20762.732980,45588.875279,-30564.593349,-2785.030605,6874.367680,90051.664062
1033,1,-0.200014,0.105845,0.038439,-10357.038900,1211.647461,49401.304891,-4230.009359,1529.003372,6708.303792,72588.890625
1034,1,-0.189877,0.123109,0.038439,4346.238859,-30654.476929,39436.832428,-16441.866536,1336.716633,5723.346741,210124.078125
1035,1,-0.178254,0.139408,0.038439,-13673.198209,-15112.393604,32486.916992,-24941.855273,-453.943305,2719.099829,77326.796875
1036,1,-0.165235,0.154617,0.038439,-39163.541036,-6554.227539,34589.565257,-29525.776530,-3163.908489,3531.029032,179281.296875
1037,1,-0.150923,0.168615,0.038439,-27338.146037,11019.133870,68172.498698,-8521.159993,-4553.050898,-1738.704865,99722.578125
1038,1,-0.135431,0.181294,0.038439,-20100.420207,-101718.856364,58038.853902,-67062.398275,-10665.361735,-3145.028422,249937.906250
1039,1,-0.118878,0.192554,0.038439,-87090.942871,-181995.018750,29064.084766,-167340.375781,-9064.350021,-2730.952661,231006.062500
1040,1,-0.101395,0.202307,0.038439,-250012.012835,-265541.045759,-17142.361189,-286621.159598,-6551.276252,-307.442904,759205.625000
1041,1,-0.083118,0.210476,0.038439,-492456.615885,-374370.164062,-91128.382812,-267157.259115,-16414.759054,-15235.751261,488417.906250
1042,1,-0.064191,0.216999,0.038439,-548585.868304,-311448.787946,-51802.173601,-138097.322399,-20212.120721,-10388.436035,562331.687500
1043,1,-0.044761,0.221823,0.038439,-485302.500000,-323808.880208,24153.946208,-5160.110677,-7676.993927,-4676.373179,403458.187500
1044,1,-0.024981,0.224911,0.038439,-317173.183594,-343891.027344,106834.117432,44015.144897,-5642.388275,7008.701569,538533.500000
1045,1,-0.005006,0.226239,0.038439,-152677.547119,-398468.107422,108219.639633,38392.330372,19.158035,4946.370193,448671.562500
1046,1,0.015008,0.225796,0.038439,-200818.723214,-363716.386161,105983.919189,-61056.715123,-6853.164900,3431.281215,522196.656250
1047,1,0.034906,0.223586,0.038439,-451987.679688,-280822.156250,50050.718872,-19222.900391,-11822.247752,2143.734645,601610.500000
1048,1,0.054530,0.219626,0.038439,-621087.585938,-293115.126953,5994.290894,129754.172852,-8163.234866,-8358.476479,639906.750000
1049,1,0.073727,0.213947,0.038439,-587175.848958,-409440.321615,-61673.073001,193477.034871,10084.213379,-18973.139296,802003.375000
1050,1,0.092347,0.206594,0.038439,-495860.239583,-472780.186198,-98397.991374,321533.937500,11074.901693,-42059.326986,802003.375000
1051,1,0.110244,0.197624,0.038439,-226667.665365,-305617.813802,-10086.479451,283927.548177,4921.182658,-24189.177653,817928.625000
1052,1,0.127279,0.187107,0.038439,-50514.301060,-177494.961496,46007.338579,126860.556571,6563.103306,-1655.192394,333212.593750
1053,1,0.143317,0.175126,0.038439,-11071.246745,-72366.293620,63819.654134,17980.493083,8155.627675,-4176.377935,110661.109375
1054,1,0.158234,0.161774,0.038439,-51804.849528,-18613.269775,45060.692424,16979.021912,4904.616124,-1012.540487,77335.757812
1055,1,0.171913,0.147156,0.038439,-16492.356707,-37591.447091,40895.567487,45526.794381,4760.258078,1968.759086,88032.976562
1056,1,0.184246,0.131387,0.038439,29848.331892,-57150.258824,45091.480486,12619.447196,-807.436959,7138.746216,88032.976562
1057,1,0.195137,0.114589,0.038439,3540.924316,-45652.133318,41595.601842,451.631696,-2803.028208,8030.719413,80850.773438
1058,1,0.204500,0.096895,0.038439,-28057.281250,15555.668182,42519.470093,-20310.936218,-3193.053041,7483.488129,108867.703125
1059,1,0.212264,0.078442,0.038439,-45453.825521,-43319.789836,35253.872803,43467.347005,5585.433736,2860.147268,112317.976562
1060,1,0.218366,0.059375,0.038439,-39930.147298,-94897.574992,29142.035900,73584.776042,3649.161013,-2955.036672,112317.976562
1061,1,0.222759,0.039843,0.038439,-19688.570079,-207129.046875,1667.863403,101314.779297,323.110240,-1328.367869,340069.906250
1062,1,0.225408,0.020000,0.038439,23842.874015,-344555.250000,-26579.958078,77500.966518,-2634.995827,-3419.737176,459915.031250
1063,1,0.226294,0.000000,0.038439,37839.824198,-393817.901042,-34468.588135,-7142.912598,-5284.556513,-1993.307763,459915.031250
1064,1,0.225408,-0.020000,0.019220,21821.073853,-330897.322917,-9412.163361,-90817.613932,-4645.306885,-9954.933685,474498.218750
1065,1,0.222759,-0.039843,0.019220,-18904.569005,-226651.220982,1154.671317,-115353.307478,-3681.439418,-11245.092967,183197.796875
1066,1,0.218366,-0.059375,0.019220,-40476.191162,-101393.507638,20319.073608,-96780.326311,-34.353202,-9929.904436,281536.250000
1067,1,0.212264,-0.078442,0.019220,-39305.317801,-18503.128836,31970.079136,-43093.324445,2048.390057,-8645.130929,208719.640625
1068,1,0.204500,-0.096895,0.019220,-28530.396729,-975.693766,33801.804097,-17525.972148,-3228.306529,570.204122,174347.437500
1069,1,0.195137,-0.114589,0.019220,-6157.176676,-20715.751790,34679.468547,-3278.771077,10861.938939,-1772.935872,157906.921875
1070,1,0.184246,-0.131387,0.019220,-6512.498361,-74281.779785,27459.252546,-19910.575544,8418.833566,-2202.944526,94731.750000
1071,1,0.171913,-0.147156,0.019220,-23161.789215,-76475.321442,30179.974258,-64653.331970,8363.976227,2404.134018,233305.734375
1072,1,0.158234,-0.161774,0.019220,-54120.775208,-59010.400675,33085.975993,-43641.138326,25858.438680,10362.563029,97723.781250
1073,1,0.143317,-0.175126,0.019220,-29146.587431,-133497.388114,35179.551897,-73521.275513,28279.965079,11173.119315,97723.781250
1074,1,0.127279,-0.187107,0.019220,-121320.083984,-253246.626674,-8785.298078,-200932.262277,28668.517173,34428.324428,804560.937500
1075,1,0.110244,-0.197624,0.019220,-310351.187337,-382057.510417,-116014.630697,-376828.058594,36585.379191,67476.980957,617324.687500
1076,1,0.092347,-0.206594,0.019220,-398289.160482,-286576.452474,-156171.423340,-300592.449870,33248.327799,86637.437663,525588.562500
1077,1,0.073727,-0.213947,0.019220,-343136.155924,-341775.807943,-168715.592773,-137410.961792,10443.297201,-19332.075887,350505.343750
1078,1,0.054530,-0.219626,0.019220,-99486.352344,-113072.577344,-47871.583594,51783.378125,9206.393311,-27356.727576,149171.109375
1079,1,0.034906,-0.223586,0.019220,-127074.509983,-261744.575087,-80700.318848,102054.885417,16158.410712,-36140.266988,303369.500000
1080,1,0.015008,-0.225796,0.019220,-163017.606836,-421020.546875,-149337.969531,65888.890234,7342.131775,-67055.266016,271249.437500
1081,1,-0.005006,-0.226239,0.019220,-147092.337856,-516269.026786,-158552.130859,-10451.527815,4954.444959,-64046.877529,447468.750000
1082,1,-0.024981,-0.224911,0.019220,-135530.727051,-386348.256836,-116633.089531,-115351.176025,-11269.087082,-54212.667175,256533.328125
1083,1,-0.044761,-0.221823,0.019220,-128717.758929,-175072.362444,-70459.925380,-104878.718192,-7753.944754,-37795.956752,256533.328125
1084,1,-0.064191,-0.216999,0.019220,-164738.742188,-248197.116071,-93563.330741,-32521.860665,-7279.375410,-39100.073242,518261.562500
1085,1,-0.083118,-0.210476,0.019220,-578992.453906,-887615.301562,-271458.784180,364516.822656,-44929.332910,11459.360937,518261.562500
1086,1,-0.101395,-0.202307,0.019220,-421225.526786,-470890.503470,-95593.318516,456618.982143,-19008.617571,52440.102805,723425.062500
1087,1,-0.118878,-0.192554,0.019220,-167344.746582,-265043.315104,-6734.249161,251551.071615,-32188.193929,24962.096273,483246.437500
1088,1,-0.135431,-0.181294,0.019220,-41376.666987,-165467.916016,28626.879766,97499.307943,-27177.893555,11514.084078,274547.656250
1089,1,-0.150923,-0.168615,0.019220,-18241.856532,-77708.236735,36311.952728,26755.220256,-16449.751767,2961.732368,150876.500000
1090,1,-0.165235,-0.154617,0.019220,-32173.343776,-46759.551662,28052.938860,51385.491560,-7542.949884,4530.043727,64868.957031
1091,1,-0.178254,-0.139408,0.019220,-12123.931676,-61629.877555,22964.661918,43194.459263,-2605.861581,5178.115644,211462.562500
1092,1,-0.189877,-0.123109,0.019220,11899.866553,-2654.879199,29724.396069,-14991.949219,-4552.444843,188.296069,85496.382812
1093,1,-0.200014,-0.105845,0.019220,5985.359843,-18317.985921,34371.697093,-10070.791504,-7241.528035,-8711.934896,95243.429688
1094,1,-0.208586,-0.087754,0.019220,-25741.896149,-25806.342102,32158.158081,20644.242249,-3356.978317,-4587.648285,84846.164062
1095,1,-0.215526,-0.068976,0.019220,-31692.890177,-55397.770833,27548.245321,55157.233073,-3688.978912,-14738.252921,84846.164062
1096,1,-0.220778,-0.049658,0.019220,-30693.252238,-147761.569824,10049.011414,93803.047852,-3877.391347,-13458.794881,143808.140625
1097,1,-0.224303,-0.029951,0.019220,727.567139,-271686.981250,-9796.539819,94441.309375,458.680688,-9983.428935,410312.312500
1098,1,-0.226072,-0.010010,0.019220,28575.000346,-383406.294271,-30548.513590,33354.476969,1298.695137,-1133.112851,405047.250000
1099,1,-0.226072,0.010010,0.019220,42125.669596,-378623.578125,-24378.579142,-28015.809794,-2688.344312,2862.343781,405047.250000
1100,1,-0.224303,0.029951,0.019220,14695.952148,-289873.387277,-8542.905727,-97568.512277,-855.450110,7755.035069,345275.281250
1101,1,-0.220778,0.049658,0.019220,-22090.357404,-163613.001395,9232.016567,-98097.434989,-176.914047,12396.523638,287400.343750
1102,1,-0.215526,0.068976,0.019220,-40335.684245,-60201.051921,25026.219248,-53980.201304,-1018.641846,11313.411235,137236.031250
1103,1,-0.208586,0.087754,0.019220,-25422.014140,4820.938477,33081.937764,-16971.070608,383.059947,7724.813019,117223.507812
1104,1,-0.200014,0.105845,0.019220,-16642.985677,23598.844055,35059.303935,443.034749,1530.695346,1341.708191,100410.804688
1105,1,-0.189877,0.123109,0.019220,4054.118586,-19563.548828,29984.326090,-12751.412964,-1511.635579,-1032.503774,74387.492188
1106,1,-0.178254,0.139408,0.019220,-9699.288403,-38936.546289,15272.506934,-34741.290088,-5160.904951,8695.712305,74387.492188
1107,1,-0.165235,0.154617,0.019220,-43418.457718,-20956.271347,26229.296509,-62779.627502,-5905.508438,7694.822342,70747.273438
1108,1,-0.150923,0.168615,0.019220,-32484.873413,-18263.373239,43387.678292,-9881.723005,-7478.373090,1507.495002,173313.765625
1109,1,-0.135431,0.181294,0.019220,-10033.699127,-129194.637277,40154.731838,-64168.442104,-16661.821080,433.905269,231006.062500
1110,1,-0.118878,0.192554,0.019220,-87160.438960,-191518.880208,15855.212596,-164675.827474,-19928.315511,-8844.651306,487350.406250
1111,1,-0.101395,0.202307,0.019220,-265716.014509,-235835.752232,-24861.702750,-278600.066964,-26584.093122,-14757.777141,501559.125000
1112,1,-0.083118,0.210476,0.019220,-503381.166667,-363462.098958,-78102.538249,-271628.212240,-14567.076833,-32636.317993,488417.906250
1113,1,-0.064191,0.216999,0.019220,-577056.111328,-385347.553711,-30817.413025,-174847.875458,2695.052826,18903.401413,708271.000000
1114,1,-0.044761,0.221823,0.019220,-507059.609375,-384711.118304,35537.369699,-4787.035156,8346.529393,36728.288749,629106.875000
1115,1,-0.024981,0.224911,0.019220,-339478.787500,-455721.581250,77336.571680,76124.953027,13951.554260,31263.662549,429912.937500
1116,1,-0.005006,0.226239,0.019220,-155970.405029,-501072.687500,76568.599808,23170.832764,7779.663208,30926.285545,633096.062500
1117,1,0.015008,0.225796,0.019220,-213077.311523,-443010.025391,80009.391342,-75654.529541,-11525.709930,30119.781551,683626.625000
1118,1,0.034906,0.223586,0.019220,-461784.778646,-363988.729167,60675.689494,-36182.650879,-18212.817261,29143.186742,362704.687500
1119,1,0.054530,0.219626,0.019220,-622644.296875,-391552.653646,-376.326965,83907.017904,-11228.829183,25489.047445,670274.312500
1120,1,0.073727,0.213947,0.019220,-637311.125000,-454764.340902,-59385.989909,230489.990723,12330.564453,13266.417914,618583.312500
1121,1,0.092347,0.206594,0.019220,-452162.601562,-378888.048177,-30778.881429,357322.451823,11008.871953,-29726.966665,518219.250000
1122,1,0.110244,0.197624,0.019220,-191828.545410,-268754.108398,4163.832260,269807.400391,12410.564915,-10442.054985,605592.000000
1123,1,0.127279,0.187107,0.019220,-42202.763464,-211052.018066,22649.454895,136932.304993,11229.559776,-3072.130150,468733.468750
1124,1,0.143317,0.175126,0.019220,-3324.908984,-90187.846777,41208.233557,19284.657617,6702.678809,1076.504260,104004.078125
1125,1,0.158234,0.161774,0.019220,-35123.135101,-15435.647559,36424.875610,25568.765039,10114.212048,3655.587537,105356.398438
1126,1,0.171913,0.147156,0.019220,-9468.888952,-41502.370361,25255.710744,47784.541829,4330.202204,1576.675293,88032.976562
1127,1,0.184246,0.131387,0.019220,26145.953320,-58186.836621,27051.731348,-2532.440137,3632.229938,5096.112494,101170.625000
1128,1,0.195137,0.114589,0.019220,-425.473083,-65772.052917,28868.124573,3560.740173,-1450.581314,5289.221912,94288.742188
1129,1,0.204500,0.096895,0.019220,-30600.511928,-45954.566507,27433.766671,23121.351283,4883.192753,8931.522609,106082.117188
1130,1,0.212264,0.078442,0.019220,-48016.345354,-42105.707306,26727.798933,48109.195871,3837.605355,14297.921247,106082.117188
1131,1,0.218366,0.059375,0.019220,-42964.381999,-87042.190430,21715.104870,79664.055339,1075.810003,14880.989075,141353.984375
1132,1,0.222759,0.039843,0.019220,-18397.337769,-215061.062500,-496.453695,107803.703125,324.931625,7152.027347,204337.343750
1133,1,0.225408,0.020000,0.019220,40754.094208,-340137.738281,-15495.692095,96647.654053,1501.725788,1591.241072,400501.562500
1134,1,0.226294,0.000000,0.019220,41750.259369,-392137.595703,-25942.617905,7223.122559,-309.762131,-4220.300124,414552.937500
1135,1,-0.057813,-0.015524,0.019220,464524.803571,-39732.339302,56062.009103,-1377.442801,-28949.940212,6237.897513,676586.562500
1136,1,-0.057813,-0.015524,0.038439,464129.853125,-63197.838574,84588.876562,11832.240625,-29323.336926,1620.805640,470188.218750
1137,1,-0.057813,-0.015524,0.057659,469542.507812,-35116.946055,96114.977214,-4744.873047,-11613.999990,-1900.765249,449882.906250
1138,1,-0.057813,-0.015524,0.076878,473582.940104,-28387.938110,98318.979492,-9646.287516,12218.290426,719.397929,366330.343750
1139,1,-0.057813,-0.015524,0.096098,477972.346354,-28898.605286,91510.558594,-1551.059733,27784.337484,4814.807521,342580.125000
1140,1,-0.057813,-0.015524,0.115317,441559.991071,-26124.098493,51810.001604,9082.752556,30759.919852,-2885.146990,441193.125000
1141,1,-0.078149,-0.015524,0.019220,437911.000000,8170.732631,17347.696164,-3537.583944,-4004.523315,1031.575790,427601.718750
1142,1,-0.078149,-0.015524,0.038439,480399.406250,6470.761354,43814.155029,-11689.338806,-9629.307968,2549.585251,447075.218750
1143,1,-0.078149,-0.015524,0.057659,478714.747768,9669.059535,48809.779367,-11795.903233,-6455.531939,-129.731129,447075.218750
1144,1,-0.078149,-0.015524,0.076878,481233.997396,9769.812462,50998.956462,-11835.524516,6186.985382,2383.965708,459724.062500
1145,1,-0.078149,-0.015524,0.096098,476104.367188,10581.428569,41842.745646,-7881.919423,10456.197835,-986.703542,425380.125000
1146,1,-0.078149,-0.015524,0.115317,425902.738281,1658.271965,17321.800171,-6404.716576,4873.679345,-3915.411751,377922.437500
1147,1,-0.098484,-0.015524,0.019220,422051.504464,147.917585,3766.379089,-806.888234,2164.452576,882.634334,427601.718750
1148,1,-0.098484,-0.015524,0.038439,459645.796875,-9.244380,8706.541565,-2599.726863,-705.234838,1908.382996,445889.593750
1149,1,-0.098484,-0.015524,0.057659,473761.705357,743.527307,16978.105050,-5181.116612,-100.570574,1286.937904,452593.343750
1150,1,-0.098484,-0.015524,0.076878,474672.250000,1019.866625,16032.551514,-4367.658997,1228.261215,616.984324,469959.687500
1151,1,-0.098484,-0.015524,0.096098,463390.117188,1273.379054,8805.871460,-4581.705048,1596.001200,-732.875645,446554.125000
1152,1,-0.098484,-0.015524,0.115317,426660.156250,561.129142,3363.830104,-4547.331918,-1971.056564,-2419.840161,382267.250000
1153,1,-0.118820,-0.015524,0.019220,415335.542411,-525.035793,3669.339674,-3153.131114,1988.539929,1274.878594,417445.218750
1154,1,-0.118820,-0.015524,0.038439,450829.179688,-334.012685,3504.954468,-4151.667366,2850.688548,940.045072,460908.375000
1155,1,-0.118820,-0.015524,0.057659,467500.294271,753.125695,9332.991374,-3703.350830,2067.607961,-389.571058,453917.500000
1156,1,-0.118820,-0.015524,0.076878,468263.348958,407.536519,9475.206980,-2810.255819,-875.593272,-871.572534,469959.687500
1157,1,-0.118820,-0.015524,0.096098,457214.794271,1020.820451,6004.289530,-4209.019145,-2600.210948,-1579.179263,460245.343750
1158,1,-0.118820,-0.015524,0.115317,422140.093750,-374.037981,77.275731,-5098.229893,-1743.082836,-1576.055938,385580.000000
1159,1,-0.139155,-0.015524,0.019220,423328.217014,-1056.980262,16858.958844,-3048.013557,7493.515182,113.012714,418713.937500
1160,1,-0.139155,-0.015524,0.038439,447632.801339,-520.164581,21554.559588,-5117.060878,9876.949097,909.200866,426776.500000
1161,1,-0.139155,-0.015524,0.057659,457018.302083,1230.519252,24887.794189,-2430.701023,4157.765986,-649.020446,452961.031250
1162,1,-0.139155,-0.015524,0.076878,461333.687500,2316.315501,26603.056091,-202.736747,-3828.388835,-1781.831843,426059.593750
1163,1,-0.139155,-0.015524,0.096098,453607.656250,3067.179220,22433.439158,-2531.423136,-9078.238330,-3620.570090,429948.843750
1164,1,-0.139155,-0.015524,0.115317,419688.535714,511.421823,6294.433018,-5128.214528,-5524.834852,-2206.275741,422015.093750
1165,1,-0.159491,-0.015524,0.019220,421367.059375,5409.406976,37639.067572,5919.506433,20548.752441,706.191888,376702.437500
1166,1,-0.159491,-0.015524,0.038439,442497.283854,6588.303762,65326.798828,-1696.450022,18739.058228,1484.662191,418713.937500
1167,1,-0.159491,-0.015524,0.057659,446127.231771,3249.485697,65140.428060,605.959900,4625.130007,-2817.858203,432178.375000
1168,1,-0.159491,-0.015524,0.076878,455110.854167,8547.849416,75153.709798,9294.350721,-9211.132299,-5970.797290,436888.312500
1169,1,-0.159491,-0.015524,0.096098,452117.440104,10284.993896,68123.077555,6531.776962,-25735.346443,-4979.321416,436888.312500
1170,1,-0.159491,-0.015524,0.115317,433566.281250,3878.753667,43577.742575,1361.288851,-24903.666433,-6981.837694,375323.000000
1171,1,-0.149265,-0.101481,0.115317,-160781.153878,-468447.462054,-76807.545271,292613.611607,-12421.606306,22640.354074,691138.750000
1172,1,-0.149265,-0.101481,0.096098,-169511.287435,-466896.664062,-90873.965251,283541.084635,-3635.378947,18288.575134,669684.562500
1173,1,-0.149265,-0.101481,0.076878,-183550.725260,-484773.825521,-92219.673584,283856.070312,-450.310865,-10587.644409,740270.187500
1174,1,-0.149265,-0.101481,0.057659,-157356.903809,-420883.799805,-69895.252075,272752.958008,-11304.646698,1580.046313,689880.312500
1175,1,-0.149265,-0.101481,0.038439,-147203.580357,-419116.883929,-62738.282575,275385.666295,6157.067744,-10472.665591,687623.000000
1176,1,-0.149265,-0.101481,0.019220,-149716.597900,-430469.045898,-55964.532768,265645.549805,12252.380096,-18406.813690,436764.312500
1177,1,-0.158839,-0.085724,0.115317,-187201.885045,-508441.515625,-64286.809919,264222.975446,-2076.090297,-3779.342695,687907.187500
1178,1,-0.158839,-0.085724,0.096098,-164050.035156,-503036.955357,-86454.926845,247267.925223,-6625.464146,9275.114833,682275.187500
1179,1,-0.158839,-0.085724,0.076878,-191539.400000,-564957.243750,-106117.971094,295929.409375,9471.090829,2975.086591,762818.312500
1180,1,-0.158839,-0.085724,0.057659,-180976.454687,-565989.046875,-99982.881226,285239.989063,-10239.424704,-1703.088855,446939.937500
1181,1,-0.158839,-0.085724,0.038439,-186588.337240,-515555.164062,-91057.928060,267541.570312,2511.680855,-5082.002574,412306.000000
1182,1,-0.158839,-0.085724,0.019220,-159253.152886,-445975.228299,-52562.110104,228202.700087,-1336.923121,-8766.753184,393607.843750
1183,1,-0.166756,-0.069073,0.115317,-129805.548177,-502212.244792,-54441.036485,224178.862847,16032.550300,-14593.062554,782039.687500
1184,1,-0.166756,-0.069073,0.096098,-137986.287109,-539684.306250,-75433.891211,254468.520313,-1347.568433,-8624.154395,682275.187500
1185,1,-0.166756,-0.069073,0.076878,-130547.115723,-512043.416667,-89889.115112,238973.725260,1023.538534,2235.152766,617262.937500
1186,1,-0.166756,-0.069073,0.057659,-129914.663086,-519727.726562,-81979.006999,244957.462240,967.708038,14.358251,644680.625000
1187,1,-0.166756,-0.069073,0.038439,-125963.188151,-527899.140625,-70702.812419,245810.283854,-4413.547742,4800.782033,644680.625000
1188,1,-0.166756,-0.069073,0.019220,-133486.160807,-513994.255208,-53845.802490,245422.274740,-10338.869893,3245.824590,419678.312500
1189,1,-0.172933,-0.051700,0.115317,-73973.450195,-522447.934375,-55619.935352,213136.137500,14386.705225,-31441.553955,666013.000000
1190,1,-0.172933,-0.051700,0.096098,-82199.738086,-502302.746875,-70105.284180,200178.557031,10496.837903,-16798.202246,401653.375000
1191,1,-0.172933,-0.051700,0.076878,-112026.855469,-501599.865625,-91139.316602,204315.734375,99.978003,-8357.282837,384048.250000
1192,1,-0.172933,-0.051700,0.057659,-101037.272135,-466469.588542,-83304.539714,197051.786458,-3912.151581,7392.886373,509150.312500
1193,1,-0.172933,-0.051700,0.038439,-97190.413737,-473827.877604,-68803.845551,198820.657552,-6191.089745,15663.338949,558410.312500
1194,1,-0.172933,-0.051700,0.019220,-97753.319661,-463359.703125,-47419.671092,205080.505859,-6490.203512,21747.534505,367591.468750
1195,1,-0.177305,-0.033788,0.115317,-46861.874791,-343893.579241,-30619.211801,171776.773438,11824.315569,-37456.553589,342575.312500
1196,1,-0.177305,-0.033788,0.096098,-47614.275035,-358698.744792,-54445.916056,167545.865885,12101.577138,-22423.536174,404122.593750
1197,1,-0.177305,-0.033788,0.076878,-19775.277502,-354986.007812,-56228.402734,167916.528125,6045.298639,-17655.664893,468731.093750
1198,1,-0.177305,-0.033788,0.057659,-49338.940331,-340532.204102,-57545.600952,171999.397461,-3845.558903,2851.187912,509150.312500
1199,1,-0.177305,-0.033788,0.038439,-53689.572021,-353783.109375,-58958.500954,166727.056641,-6425.650523,27778.328776,425386.437500
1200,1,-0.177305,-0.033788,0.019220,-44273.387440,-348768.051339,-41228.678290,168237.535714,-2462.326211,38190.722028,558410.312500
1201,1,-0.123754,-0.101800,0.019220,176146.995815,36101.330915,95350.891636,166583.707868,4963.350183,27524.402344,402201.750000
1202,1,-0.123754,-0.101800,0.038439,200653.924154,41421.703125,137749.289917,207085.031250,7576.903053,18501.073568,847338.312500
1203,1,-0.123754,-0.101800,0.057659,196788.325521,60675.858724,143905.355957,200364.307292,6026.177551,-23.879171,847338.312500
1204,1,-0.123754,-0.101800,0.076878,223234.380534,57694.550944,141660.982259,200615.769206,-773.436752,-8417.828776,373200.781250
1205,1,-0.123754,-0.101800,0.096098,229857.125244,40791.968424,130112.898356,231796.530599,-11628.235331,-29273.634664,808561.687500
1206,1,-0.123754,-0.101800,0.115317,207800.016927,51033.995443,100055.173747,224155.973546,-18215.147776,-28091.892375,813113.750000
1207,1,-0.109375,-0.087421,0.019220,159730.819336,-31712.652076,54062.163034,60587.386440,-4258.431776,8790.501317,245692.609375
1208,1,-0.109375,-0.087421,0.038439,196081.948242,-11205.581072,90597.859375,87893.619792,2505.775752,8424.554464,207483.156250
1209,1,-0.109375,-0.087421,0.057659,189254.338867,-7454.811279,99594.680501,88032.839518,2928.575317,3987.614695,221082.765625
1210,1,-0.109375,-0.087421,0.076878,174787.417578,16422.599512,91458.802090,96673.162695,-6117.849774,-5846.449951,436721.093750
1211,1,-0.109375,-0.087421,0.096098,211934.662109,3388.107143,88466.424624,93711.962054,-7973.294059,-12182.122528,373200.781250
1212,1,-0.109375,-0.087421,0.115317,183221.310156,60386.032178,56366.223602,136077.935059,-1487.058789,-665.347900,162147.015625
1213,1,-0.094995,-0.073041,0.019220,85703.197963,-109825.208775,15963.659947,-13115.197266,-6436.448355,-2254.573687,245692.609375
1214,1,-0.094995,-0.073041,0.038439,102051.066406,-96964.228533,28209.178446,3162.049805,670.045751,2798.402115,238053.218750
1215,1,-0.094995,-0.073041,0.057659,95898.037109,-95625.550119,30836.072998,550.557478,1517.846006,1500.877961,180228.578125
1216,1,-0.094995,-0.073041,0.076878,100387.562891,-83438.837207,34455.759033,15927.589062,-211.389142,-1509.349292,180228.578125
1217,1,-0.094995,-0.073041,0.096098,98396.074777,-89345.791574,27944.883248,5750.565848,-3843.590359,-2577.322530,176867.484375
1218,1,-0.094995,-0.073041,0.115317,87963.598493,-105885.560547,9559.604806,348.470982,4475.448975,11239.097425,211235.890625
1219,1,-0.080616,-0.058662,0.019220,12889.143694,-186787.417411,-15365.007319,-87342.140904,-3546.157493,-7538.964371,363504.218750
1220,1,-0.080616,-0.058662,0.038439,17186.765625,-183818.924479,-18106.940048,-84146.672038,972.844098,-659.549675,202989.296875
1221,1,-0.080616,-0.058662,0.057659,17243.719401,-174914.904948,-14601.452189,-78330.493001,33.348335,1904.078913,178337.578125
1222,1,-0.080616,-0.058662,0.076878,22898.291853,-167481.851004,-11811.575588,-70327.877232,2067.342621,2654.100028,180228.578125
1223,1,-0.080616,-0.058662,0.096098,31102.313058,-168063.907366,-9707.131548,-67604.236607,-721.454366,4929.369699,176867.484375
1224,1,-0.080616,-0.058662,0.115317,21724.676339,-181159.171875,-10271.272583,-74269.951311,4755.054485,15238.442906,246910.843750
1225,1,-0.066236,-0.044283,0.019220,-59395.400101,-255573.424107,-41838.340977,-160589.039900,908.175853,-10269.494921,363504.218750
1226,1,-0.066236,-0.044283,0.038439,-67154.992513,-258120.845052,-53091.999186,-171940.392578,954.665677,-2185.551270,363504.218750
1227,1,-0.066236,-0.044283,0.057659,-67742.673828,-243339.618490,-49444.725077,-166450.535482,811.424128,2022.876646,211596.000000
1228,1,-0.066236,-0.044283,0.076878,-67555.876953,-249049.393880,-51088.859192,-165815.879883,3677.340121,5334.967204,535033.750000
1229,1,-0.066236,-0.044283,0.096098,-53614.817383,-255557.429036,-45342.843913,-160074.989583,-444.221382,10263.593526,220750.250000
1230,1,-0.066236,-0.044283,0.115317,-50102.279715,-249723.862723,-32916.604064,-148171.370536,2622.039867,17489.532540,212519.593750
1231,1,-0.051857,-0.029903,0.019220,-185629.908412,-376796.676060,-93463.535041,-228467.220424,5930.434974,13420.531952,267933.750000
1232,1,-0.051857,-0.029903,0.038439,-152085.181571,-332181.183873,-86596.808757,-198583.812500,-11063.522138,-4793.215489,585378.250000
1233,1,-0.051857,-0.029903,0.057659,-170456.090088,-349284.563151,-95600.238973,-236583.389974,4797.664988,7742.358297,514761.750000
1234,1,-0.051857,-0.029903,0.076878,-156436.942627,-352909.354818,-94424.499878,-234733.233073,-1196.072052,-5245.532959,535033.750000
1235,1,-0.051857,-0.029903,0.096098,-140444.349609,-354857.770182,-79810.601562,-227599.676107,3091.304957,6249.813273,535033.750000
1236,1,-0.051857,-0.029903,0.115317,-126522.984680,-342773.103795,-68837.110596,-212701.344029,746.745601,3376.616071,221320.406250
1237,1,-0.033788,-0.177305,0.115317,166020.098307,-93034.474528,80718.804016,-233346.572266,61343.103190,-3120.188680,479559.593750
1238,1,-0.033788,-0.177305,0.096098,175323.883382,-58374.013753,102333.980957,-225306.825521,35483.248774,7799.309998,259742.609375
1239,1,-0.033788,-0.177305,0.076878,136013.509201,-68354.431702,91547.356567,-214300.799561,-2971.640572,-12378.073006,399701.500000
1240,1,-0.033788,-0.177305,0.057659,229914.197998,15491.172363,160902.105469,-196990.257812,-31943.041260,-5644.331207,399701.500000
1241,1,-0.033788,-0.177305,0.038439,205633.326172,19750.164714,141873.545247,-198187.655924,-33341.736898,4884.585571,565836.062500
1242,1,-0.033788,-0.177305,0.019220,142863.859654,-61373.698521,86936.558838,-221954.481585,-58542.444371,-7581.410322,479837.093750
1243,1,-0.051700,-0.172933,0.115317,333542.225167,11125.322545,120919.068621,-154356.816964,6023.835811,-12024.403660,479559.593750
1244,1,-0.051700,-0.172933,0.096098,360277.407031,36132.317676,155105.258594,-170834.510937,-1245.808459,-805.509326,467380.625000
1245,1,-0.051700,-0.172933,0.076878,367443.104492,49527.492772,172144.019857,-173313.337240,-5837.630905,-2076.976280,399701.500000
1246,1,-0.051700,-0.172933,0.057659,412847.182812,46277.144189,196492.311719,-184461.746094,-5142.786621,5633.525464,212352.281250
1247,1,-0.051700,-0.172933,0.038439,377849.373047,39813.857788,170262.405599,-173327.312500,-10585.824671,5794.210673,171386.890625
1248,1,-0.051700,-0.172933,0.019220,381307.275000,33135.121680,125477.772266,-167338.154688,-3046.090485,4597.268811,682418.187500
1249,1,-0.069073,-0.166756,0.115317,407882.702567,-17245.838170,133784.119001,-94407.731166,-21059.793056,-17219.360596,269278.187500
1250,1,-0.069073,-0.166756,0.096098,444269.229687,-44191.283789,179274.968750,-128462.082812,-11633.420630,510.978320,602633.875000
1251,1,-0.069073,-0.166756,0.076878,423671.989583,-43932.064072,185040.855469,-127740.805990,-9502.198954,2009.377757,602633.875000
1252,1,-0.069073,-0.166756,0.057659,408145.617188,-57542.786204,184260.623698,-121584.529948,-588.432144,4540.059611,614357.125000
1253,1,-0.069073,-0.166756,0.038439,418183.138021,-48798.503927,157086.133138,-112948.908529,15490.482768,6429.445150,169899.515625
1254,1,-0.069073,-0.166756,0.019220,407115.295573,-33581.045502,111701.889654,-125857.906820,25432.010157,7267.311544,196194.875000
1255,1,-0.085724,-0.158839,0.115317,245958.962612,-180800.994420,85101.586775,62995.518415,-25005.601702,-6741.614312,366890.687500
1256,1,-0.085724,-0.158839,0.096098,236841.029948,-183481.463542,116832.888346,52462.638021,-12461.170369,-360.300306,441474.125000
1257,1,-0.085724,-0.158839,0.076878,238032.566406,-202572.992188,117134.964193,60274.481120,-6906.875626,2866.495809,614357.125000
1258,1,-0.085724,-0.158839,0.057659,238023.898438,-206799.603516,109256.889730,71351.416341,1193.001943,8148.518717,614357.125000
1259,1,-0.085724,-0.158839,0.038439,254016.473958,-174147.372396,98081.251221,60184.978516,21408.049357,1530.323334,276055.593750
1260,1,-0.085724,-0.158839,0.019220,209330.278320,-184114.556362,64491.615792,66760.075893,33019.695182,3927.312657,276055.593750
1261,1,-0.101481,-0.149265,0.115317,-25713.956805,-362691.176339,5936.593052,235839.238839,-20277.171692,3354.374599,366890.687500
1262,1,-0.101481,-0.149265,0.096098,-44182.456065,-378518.529948,3407.203451,248102.187500,-354.325432,-4877.615611,441474.125000
1263,1,-0.101481,-0.149265,0.076878,-49747.283285,-421887.924479,-17637.902018,242820.261719,-1333.943314,-9676.338247,499860.531250
1264,1,-0.101481,-0.149265,0.057659,-25583.453962,-446660.571429,-33061.554339,243267.337054,1637.096305,8132.882481,499860.531250
1265,1,-0.101481,-0.149265,0.038439,-35153.923523,-366633.497396,-5708.394368,248952.491536,14159.882815,2606.002340,480309.406250
1266,1,-0.101481,-0.149265,0.019220,-19093.569615,-337589.330915,-1642.545061,242355.472098,25115.484253,-4417.477713,500275.562500
1267,1,-0.015524,-0.057813,0.115317,-4955.645772,-1255632.052083,-74491.837992,14350.258362,11274.683294,-51194.281169,1193846.000000
1268,1,-0.015524,-0.057813,0.096098,-22825.259583,-1265025.739583,-119731.023763,24692.774089,-2503.159424,-39248.888509,1133550.125000
1269,1,-0.015524,-0.057813,0.076878,-22942.022746,-1264449.145833,-130241.455078,36165.626261,4290.426556,-17561.987172,1133550.125000
1270,1,-0.015524,-0.057813,0.057659,-30155.011759,-1280323.041667,-129014.835612,36002.493286,5908.780081,15854.381643,1217757.125000
1271,1,-0.015524,-0.057813,0.038439,-28821.779858,-1293980.300000,-117688.245508,31403.111377,-1248.434058,36348.994238,1256554.750000
1272,1,-0.015524,-0.057813,0.019220,-20725.561727,-1266423.833333,-73977.504517,34016.809652,-5751.880188,43102.194600,1234372.875000
1273,1,-0.015524,-0.078149,0.115317,-4357.063782,-1224198.234375,-14166.459961,-1182.550428,1374.855473,-10945.070056,1166957.375000
1274,1,-0.015524,-0.078149,0.096098,-7041.550222,-1269729.520833,-38156.323527,2442.341268,3886.462321,-14732.713009,1254108.125000
1275,1,-0.015524,-0.078149,0.076878,-7274.015096,-1275789.177083,-51940.517985,5695.286382,1612.282023,-8949.552418,1273444.250000
1276,1,-0.015524,-0.078149,0.057659,-8484.312785,-1271786.958333,-50009.225911,7739.290449,1560.111693,8338.742907,1217757.125000
1277,1,-0.015524,-0.078149,0.038439,-6587.494873,-1260453.781250,-38069.685923,8197.703763,-900.136719,18734.590820,1256554.750000
1278,1,-0.015524,-0.078149,0.019220,-7657.470171,-1227589.580357,-22328.539411,8349.747286,-4731.113534,13136.143812,1256554.750000
1279,1,-0.015524,-0.098484,0.115317,-446.005493,-1217360.348214,-1320.598136,-3309.050827,1663.495641,-1151.247749,1170177.125000
1280,1,-0.015524,-0.098484,0.096098,-2443.392242,-1264039.989583,-8491.804657,-2189.074768,1748.591049,-3646.696025,1254108.125000
1281,1,-0.015524,-0.098484,0.076878,-1744.557139,-1279573.239583,-14412.147878,-533.925608,840.783421,-3447.473919,1273444.250000
1282,1,-0.015524,-0.098484,0.057659,-2484.768228,-1279083.000000,-15455.243244,-450.389280,282.453740,2458.373510,1273444.250000
1283,1,-0.015524,-0.098484,0.038439,-3932.463875,-1265138.062500,-9863.841253,150.110392,-1025.030581,7015.897279,1261457.750000
1284,1,-0.015524,-0.098484,0.019220,-3635.151457,-1225322.651786,-4546.653168,-339.865681,-2273.334403,4528.099984,1226032.250000
1285,1,-0.015524,-0.118820,0.115317,-816.691010,-1217184.294643,-671.286479,-2537.927944,1653.387997,-2315.557683,1222933.750000
1286,1,-0.015524,-0.118820,0.096098,-2520.973939,-1264796.041667,-8083.465828,-3592.788132,1010.303616,1141.333893,1267647.125000
1287,1,-0.015524,-0.118820,0.076878,-1646.675822,-1283183.604167,-13433.450551,-2642.644018,364.123509,-1502.419851,1277314.125000
1288,1,-0.015524,-0.118820,0.057659,-1674.437876,-1286389.104167,-12137.797485,-2377.092977,-605.143129,-494.350021,1282962.250000
1289,1,-0.015524,-0.118820,0.038439,-1898.638412,-1271306.135417,-7288.877126,-1551.562887,-2050.209441,1255.561853,1282962.250000
1290,1,-0.015524,-0.118820,0.019220,-1570.293178,-1226413.357143,-631.895586,-1579.960641,-2149.902691,4856.145660,1237924.500000
1291,1,-0.015524,-0.139155,0.115317,-2979.754556,-1219889.053571,-11012.391488,-3079.612307,2148.030950,-580.970494,1222933.750000
1292,1,-0.015524,-0.139155,0.096098,-5378.737101,-1273797.520833,-31036.859680,-7066.082672,453.660046,9111.933370,1260047.250000
1293,1,-0.015524,-0.139155,0.076878,-3824.993408,-1284830.312500,-42819.806600,-8572.202428,-1667.120691,2134.940043,1245647.250000
1294,1,-0.015524,-0.139155,0.057659,-5632.861339,-1290926.635417,-43579.315511,-8538.962326,-840.327220,-5436.532628,1245647.250000
1295,1,-0.015524,-0.139155,0.038439,-7569.340293,-1284708.114583,-33159.390442,-5171.926044,-4467.820938,-9826.826678,1232923.750000
1296,1,-0.015524,-0.139155,0.019220,-2822.521057,-1233386.794643,-7222.502162,-2352.179099,-3136.247148,49.898719,1237924.500000
1297,1,-0.015524,-0.159491,0.115317,-50081.100568,-1236318.303571,-65518.186977,-28779.122489,127.882377,18989.597325,1222649.250000
1298,1,-0.015524,-0.159491,0.096098,-73420.709859,-1310115.291667,-118272.842773,-49841.042155,-5365.217588,27831.687297,1222649.250000
1299,1,-0.015524,-0.159491,0.076878,-62336.679565,-1303768.562500,-131365.101725,-51417.345133,-6144.474588,10113.434113,1160775.875000
1300,1,-0.015524,-0.159491,0.057659,-78600.708984,-1299895.177083,-141857.001953,-54084.670898,-5313.861819,-15115.245138,1188261.250000
1301,1,-0.015524,-0.159491,0.038439,-89410.504477,-1305550.208333,-133093.610433,-52405.662571,-10931.515432,-39387.971881,1264062.250000
1302,1,-0.015524,-0.159491,0.019220,-60441.667829,-1273609.375000,-67860.995135,-34046.827884,-12233.053551,-36185.899830,1254635.125000
1303,1,-0.029903,-0.051857,0.019220,211603.097255,31864.793370,136103.097796,141494.256138,-38156.276555,-34023.221959,175910.765625
1304,1,-0.029903,-0.051857,0.038439,223683.336151,11433.181641,151672.430827,141472.879557,-20549.273621,-11387.474935,613673.312500
1305,1,-0.029903,-0.051857,0.057659,207836.220866,46015.637370,161808.862722,140970.436198,-10647.252258,-13578.151164,326675.187500
1306,1,-0.029903,-0.051857,0.076878,201825.815592,49805.197266,159512.717122,150997.181966,7439.631632,5633.066854,260190.281250
1307,1,-0.029903,-0.051857,0.096098,209596.187826,53705.333333,148949.417521,154571.024740,9072.091064,15611.832990,576923.187500
1308,1,-0.029903,-0.051857,0.115317,198988.576521,16285.934710,102680.298584,124008.348772,15350.165737,21471.044979,229523.234375
1309,1,-0.044283,-0.066236,0.019220,139768.635080,-55528.825195,52610.933716,45131.927455,2707.831460,-9651.456002,213288.531250
1310,1,-0.044283,-0.066236,0.038439,166789.614583,-41122.381185,90203.665304,67464.519857,-9017.377889,-10108.923063,212200.750000
1311,1,-0.044283,-0.066236,0.057659,156548.050781,-38263.165039,92300.433940,61945.817057,-10800.390259,-3744.904747,326675.187500
1312,1,-0.044283,-0.066236,0.076878,154329.942871,-35793.691732,91328.856542,61047.811523,886.347931,1609.052882,209452.343750
1313,1,-0.044283,-0.066236,0.096098,158691.082357,-32094.498047,82863.928365,64734.503581,-3195.214305,7271.137006,209452.343750
1314,1,-0.044283,-0.066236,0.115317,147423.031529,-56965.685268,54778.577821,43020.307199,-6862.850584,2336.238037,236443.250000
1315,1,-0.058662,-0.080616,0.019220,67264.253069,-131666.948800,15220.836792,-33973.632533,8636.100425,3646.659589,213288.531250
1316,1,-0.058662,-0.080616,0.038439,79492.746419,-123056.048177,31250.773539,-22729.262044,-997.797304,-1598.409831,226075.812500
1317,1,-0.058662,-0.080616,0.057659,77777.562500,-119985.410482,37026.663371,-22349.837565,-3712.408346,157.132762,204211.359375
1318,1,-0.058662,-0.080616,0.076878,73950.428223,-117431.226237,35212.226237,-22200.235352,-3006.695999,-965.524037,218933.218750
1319,1,-0.058662,-0.080616,0.096098,75407.797607,-117262.121094,30545.304606,-20899.106120,-4261.698369,-93.369410,216000.500000
1320,1,-0.058662,-0.080616,0.115317,69531.242772,-137928.315848,16484.106689,-30042.174107,-9796.135411,-6094.198539,246910.843750
1321,1,-0.073041,-0.094995,0.019220,-6802.951939,-206413.849330,-13294.182739,-107686.930246,8038.995223,11179.299024,420822.687500
1322,1,-0.073041,-0.094995,0.038439,-9699.199382,-210916.177083,-14335.137065,-109810.965820,2079.107132,5330.938517,417539.343750
1323,1,-0.073041,-0.094995,0.057659,-10660.797689,-210361.911458,-11959.024048,-108533.596680,287.446994,2641.557434,424926.968750
1324,1,-0.073041,-0.094995,0.076878,-4264.106864,-194200.083705,-4757.916094,-99279.076172,-2870.998544,-3208.687617,193100.125000
1325,1,-0.073041,-0.094995,0.096098,-7381.713053,-190968.056641,-3948.422729,-106010.255534,-4816.560674,-4537.049492,438875.812500
1326,1,-0.073041,-0.094995,0.115317,-4348.527736,-219844.831473,-18708.256173,-108184.988281,-5052.121116,-6854.761457,234409.171875
1327,1,-0.087421,-0.109375,0.019220,-81094.879325,-275763.066964,-36938.982474,-178684.146763,6641.895054,19784.505720,420822.687500
1328,1,-0.087421,-0.109375,0.038439,-93610.501628,-291866.178385,-46107.278239,-197106.834961,3401.723268,10014.469584,222425.593750
1329,1,-0.087421,-0.109375,0.057659,-85810.013672,-278615.639323,-42583.616048,-194496.753255,3340.913923,3436.648081,618267.812500
1330,1,-0.087421,-0.109375,0.076878,-98863.053711,-296942.088542,-44085.128743,-201252.216797,1704.506274,-5397.742605,416440.500000
1331,1,-0.087421,-0.109375,0.096098,-124346.053516,-297007.431250,-40573.580957,-211404.641406,499.101300,-11360.241992,394303.000000
1332,1,-0.087421,-0.109375,0.115317,-85657.348307,-298477.629557,-41386.084351,-192333.996582,-468.296173,-9346.092041,515939.781250
1333,1,-0.101800,-0.123754,0.019220,-151429.141741,-391501.330915,-68005.875558,-230468.176618,5031.956220,34901.703125,648485.250000
1334,1,-0.101800,-0.123754,0.038439,-191999.876465,-465751.770833,-99917.084310,-262876.985677,6167.539215,12106.491343,648485.250000
1335,1,-0.101800,-0.123754,0.057659,-198254.360229,-450546.160156,-103138.898763,-265541.476562,6813.531799,2801.185282,225218.718750
1336,1,-0.101800,-0.123754,0.076878,-201998.370768,-478024.480469,-110294.048686,-256444.070964,3510.412496,-3101.590022,251090.203125
1337,1,-0.101800,-0.123754,0.096098,-215045.602148,-526495.478906,-107256.631250,-256220.014453,6421.841376,-15445.484961,251090.203125
1338,1,-0.101800,-0.123754,0.115317,-191248.126628,-423185.023112,-62616.705404,-214581.826497,1353.110636,-23934.927490,202304.687500
1339,1,0.015524,-0.057813,0.019220,-25463.215796,-1308822.175000,-97069.251562,-45937.470996,16304.283105,51812.188354,1313494.250000
1340,1,0.015524,-0.057813,0.038439,-16593.495523,-1321363.900000,-121410.119141,-37410.714844,9431.171989,35194.364819,1313494.250000
1341,1,0.015524,-0.057813,0.057659,-20493.700246,-1287684.083333,-130270.870117,-39675.672526,3916.317312,18591.578288,1199129.625000
1342,1,0.015524,-0.057813,0.076878,-29764.112752,-1279488.208333,-134338.062500,-41047.910319,2261.934285,-18068.454915,1254919.500000
1343,1,0.015524,-0.057813,0.096098,-23549.238149,-1280487.947917,-122251.003581,-32174.438232,6008.770579,-38197.382080,1193653.750000
1344,1,0.015524,-0.057813,0.115317,-9000.335093,-1264106.979167,-66660.042643,-17431.520223,367.058380,-43396.524902,1193653.750000
1345,1,0.015524,-0.078149,0.019220,-11795.911606,-1234913.083333,-23687.999410,-11501.263311,5022.295481,10813.467555,1225557.625000
1346,1,0.015524,-0.078149,0.038439,-7788.733650,-1269305.208333,-39241.229411,-12680.268219,4588.923373,9593.516296,1258298.750000
1347,1,0.015524,-0.078149,0.057659,-7348.093547,-1277873.062500,-49873.551839,-11120.401667,2648.183215,4873.005246,1269633.625000
1348,1,0.015524,-0.078149,0.076878,-8345.041725,-1279584.541667,-52293.951416,-9590.079870,2550.238818,-10800.451355,1258791.250000
1349,1,0.015524,-0.078149,0.096098,-7784.543844,-1266161.552083,-41172.109049,-6252.528005,-1108.595486,-16800.478923,1217861.125000
1350,1,0.015524,-0.078149,0.115317,-3636.780575,-1222686.589286,-15999.066903,-4336.798385,-4564.260445,-13014.985317,1170022.750000
1351,1,0.015524,-0.098484,0.019220,-2423.918828,-1216425.285714,-1565.619405,-2425.974125,1732.275312,-332.163696,1244583.375000
1352,1,0.015524,-0.098484,0.038439,-4439.908854,-1259256.312500,-10138.611084,-2661.672470,1928.222280,-68.956595,1268483.625000
1353,1,0.015524,-0.098484,0.057659,-2461.811269,-1274151.593750,-14082.951396,-3176.837713,1242.373359,-2143.703626,1268483.625000
1354,1,0.015524,-0.098484,0.076878,-1520.172152,-1274635.510417,-14210.883950,-3035.258830,448.844605,-7199.741936,1269633.625000
1355,1,0.015524,-0.098484,0.096098,-1879.664042,-1259416.833333,-7904.249512,-2870.180010,-1435.660425,-8648.711141,1248647.750000
1356,1,0.015524,-0.098484,0.115317,-754.868740,-1214524.687500,-1868.470773,-2023.494864,-2910.934444,-3704.675943,1213593.500000
1357,1,0.015524,-0.118820,0.019220,-1219.559937,-1211323.553571,311.286287,-2116.382202,1734.772150,426.744779,1198163.625000
1358,1,0.015524,-0.118820,0.038439,-2311.125769,-1256489.062500,-7258.156576,-133.568178,543.285777,-4341.691326,1249474.500000
1359,1,0.015524,-0.118820,0.057659,-1446.928090,-1273274.250000,-11215.864868,-598.532814,-184.213560,-3449.216067,1268483.625000
1360,1,0.015524,-0.118820,0.076878,-1449.371485,-1273594.322917,-10344.128487,-514.881504,-1015.160395,-4391.483170,1257519.250000
1361,1,0.015524,-0.118820,0.096098,-2011.362183,-1255520.187500,-5264.009163,-1837.229510,-2233.833744,-3965.682556,1243470.750000
1362,1,0.015524,-0.118820,0.115317,-389.530967,-1209029.669643,1214.988473,-2446.249732,-2362.602347,-4227.619428,1166976.875000
1363,1,0.015524,-0.139155,0.019220,-5606.334237,-1208653.794643,-11594.058262,-329.938738,2105.301939,-3186.484122,1198163.625000
1364,1,0.015524,-0.139155,0.038439,-8464.432166,-1259813.802083,-35631.271444,3529.704892,75.529554,-10253.988373,1254671.000000
1365,1,0.015524,-0.139155,0.057659,-5132.210286,-1272906.010417,-39978.222046,5202.469915,-2898.768845,-3382.537811,1255710.000000
1366,1,0.015524,-0.139155,0.076878,-3406.494191,-1272060.322917,-36574.554626,5261.338287,-1410.904444,1868.518483,1255710.000000
1367,1,0.015524,-0.139155,0.096098,-5348.431844,-1259591.531250,-27083.189931,1533.958496,-4666.264503,5245.208344,1212745.625000
1368,1,0.015524,-0.139155,0.115317,-762.566690,-1207352.785714,-4811.369882,-2427.359358,-3464.553230,-594.962594,1208160.375000
1369,1,0.015524,-0.159491,0.019220,-51143.405831,-1234332.955357,-72169.041382,34006.134443,1906.559879,-30185.285889,1179021.250000
1370,1,0.015524,-0.159491,0.038439,-80781.137777,-1279164.239583,-132624.626953,55875.135437,2359.135279,-30956.904460,1139408.125000
1371,1,0.015524,-0.159491,0.057659,-70753.614227,-1281860.395833,-135633.017415,53417.873901,-2648.908906,-5436.857211,1123941.125000
1372,1,0.015524,-0.159491,0.076878,-68239.059672,-1295749.593750,-129016.588216,52628.765544,-2496.782918,15421.725962,1210046.750000
1373,1,0.015524,-0.159491,0.096098,-73404.885132,-1287886.854167,-109993.785238,40737.910197,-6960.476724,27985.842189,1210046.750000
1374,1,0.015524,-0.159491,0.115317,-45355.579415,-1228799.955357,-56873.520194,19318.851458,-10773.205305,29959.274484,1225534.125000
1375,1,0.101481,-0.149265,0.115317,14777.311686,-369091.561198,8818.057454,-179422.256836,4381.503746,-1363.547750,346010.968750
1376,1,0.101481,-0.149265,0.096098,21214.903971,-404612.186198,28291.608398,-215313.138672,-69.449768,-22577.008301,378522.281250
1377,1,0.101481,-0.149265,0.076878,45601.805257,-483107.975260,35144.233439,-219974.435547,-2020.239985,-13481.528872,662197.375000
1378,1,0.101481,-0.149265,0.057659,40688.621484,-489352.623437,19055.660938,-212949.309375,3080.817383,28566.519406,651513.562500
1379,1,0.101481,-0.149265,0.038439,-25517.041113,-481489.648438,-33537.905225,-196830.835156,-5832.897846,12745.243463,726367.250000
1380,1,0.101481,-0.149265,0.019220,-11795.749756,-449740.231445,-32755.401634,-202819.135742,-4851.709164,28965.856171,831343.500000
1381,1,0.085724,-0.158839,0.115317,230668.732015,-155273.017741,63061.700846,-19208.852376,17551.730103,-17050.466888,331362.125000
1382,1,0.085724,-0.158839,0.096098,247447.309896,-166299.956868,140497.216471,-23723.471029,24678.363525,-20496.466003,475763.000000
1383,1,0.085724,-0.158839,0.076878,259139.196115,-237708.302455,152274.950195,-31464.773438,8950.476141,-7222.510018,723446.750000
1384,1,0.085724,-0.158839,0.057659,242715.013672,-263616.168945,126712.552612,-45065.940674,-452.292130,17824.894630,723446.750000
1385,1,0.085724,-0.158839,0.038439,243324.709961,-184469.775065,128613.709290,-52762.152995,-32429.822184,22853.150594,526286.125000
1386,1,0.085724,-0.158839,0.019220,244371.127734,-177252.108203,66664.849780,-35679.299219,-37834.073730,31380.226538,276131.812500
1387,1,0.069073,-0.166756,0.115317,308359.319824,-31006.529297,93735.899475,67653.064514,36710.605225,-29450.484856,463056.062500
1388,1,0.069073,-0.166756,0.096098,358668.273438,-30908.856283,172225.844727,125659.315837,24727.869059,-13279.102203,553081.500000
1389,1,0.069073,-0.166756,0.076878,378630.773438,3250.572184,223891.072917,140849.499105,11937.925771,14383.739522,380222.781250
1390,1,0.069073,-0.166756,0.057659,398864.903125,-19299.684180,189867.361719,145128.105371,-7506.701807,10940.746338,563133.750000
1391,1,0.069073,-0.166756,0.038439,322278.342076,-52889.428850,154258.150181,119244.698033,-28331.780506,5803.612270,546151.375000
1392,1,0.069073,-0.166756,0.019220,357336.580729,-19403.718821,119221.510335,115135.702230,-47557.839274,9365.562948,178709.640625
1393,1,0.051700,-0.172933,0.115317,262770.058659,49092.373744,88411.311140,142738.306501,1464.491037,-5845.509548,368739.375000
1394,1,0.051700,-0.172933,0.096098,271895.170791,75159.200439,149171.039342,159740.052176,-112.732282,-8466.555315,553081.500000
1395,1,0.051700,-0.172933,0.076878,301517.239583,82714.704997,187840.423177,178921.017822,-2243.353088,15470.318217,45072.546875
1396,1,0.051700,-0.172933,0.057659,236775.879395,69056.764099,152222.403938,139392.619690,-634.318954,-6332.408447,45072.546875
1397,1,0.051700,-0.172933,0.038439,335576.347656,61990.729883,167529.567188,164692.439062,-6770.482893,4377.939200,385668.437500
1398,1,0.051700,-0.172933,0.019220,273195.853237,48344.986546,100988.043387,144075.163504,1068.319179,434.980384,102285.250000
1399,1,0.033788,-0.177305,0.115317,83260.945055,3009.166938,76752.087321,160235.515516,-50587.627428,-1425.317291,721028.937500
1400,1,0.033788,-0.177305,0.096098,121518.073893,-44578.908854,93275.321086,187038.401693,-33564.919169,-5680.788935,203651.500000
1401,1,0.033788,-0.177305,0.076878,131986.436942,-423.244420,112962.433664,183954.376953,-13138.874324,-2271.245120,203651.500000
1402,1,0.033788,-0.177305,0.057659,109138.864537,-4441.111206,114714.222935,186529.198103,14169.055154,-5854.275882,312727.250000
1403,1,0.033788,-0.177305,0.038439,142143.703418,-44328.558984,114082.830957,192415.770313,39308.075635,-10836.353113,186048.406250
1404,1,0.033788,-0.177305,0.019220,117225.925546,-89180.702872,69024.880441,203041.724330,50224.885460,-4413.797370,266659.187500
1405,1,0.101800,-0.123754,0.019220,-251383.787388,-491632.597656,-92095.702253,197674.511719,-6065.098658,54040.600979,233353.937500
1406,1,0.101800,-0.123754,0.038439,-194617.078906,-465993.569531,-77736.282031,281585.624219,9456.513312,6576.516176,302341.000000
1407,1,0.101800,-0.123754,0.057659,-197367.068670,-451967.938802,-89508.754720,283924.935547,2464.376577,3206.720576,302341.000000
1408,1,0.101800,-0.123754,0.076878,-220215.379801,-466489.722656,-96503.834635,287485.413411,7457.460409,-2472.187378,869007.687500
1409,1,0.101800,-0.123754,0.096098,-221795.966187,-471116.513021,-100011.713786,276084.843424,6139.830994,-26944.032878,671452.437500
1410,1,0.101800,-0.123754,0.115317,-166228.171317,-402700.758371,-69322.734235,232603.201730,10101.068220,-32306.402100,223281.312500
1411,1,0.087421,-0.109375,0.019220,-147926.824707,-323822.435547,-40821.928162,250881.583008,-14347.196518,31179.230469,795955.500000
1412,1,0.087421,-0.109375,0.038439,-108791.384440,-336814.809896,-43092.752619,228412.146810,-4369.180532,12111.663352,795955.500000
1413,1,0.087421,-0.109375,0.057659,-92464.277995,-312520.210286,-40340.056966,214514.574544,-4431.140600,5935.711502,200912.640625
1414,1,0.087421,-0.109375,0.076878,-110518.775391,-299952.061198,-43351.354492,211238.028971,2000.783910,-3021.860001,443576.500000
1415,1,0.087421,-0.109375,0.096098,-112125.983724,-294123.919271,-41658.869303,209966.708008,2066.844966,-14413.686930,431584.187500
1416,1,0.087421,-0.109375,0.115317,-72834.768982,-266867.346680,-31077.894241,175058.408447,4052.951897,-21460.376343,189528.203125
1417,1,0.073041,-0.094995,0.019220,-28482.798197,-215907.085938,-16219.849508,127395.489583,-9717.104370,15451.686849,246153.828125
1418,1,0.073041,-0.094995,0.038439,-26093.127797,-229825.110677,-12819.842021,122213.458008,-10392.660522,7335.737223,253076.734375
1419,1,0.073041,-0.094995,0.057659,-20100.113556,-238276.463542,-13198.687236,121030.977539,-3763.493245,8960.512151,451169.718750
1420,1,0.073041,-0.094995,0.076878,-23519.259847,-224864.100260,-12115.003591,122434.798503,-1227.639348,-1244.715369,451169.718750
1421,1,0.073041,-0.094995,0.096098,-24587.330338,-221864.350260,-14035.323832,124093.052409,1628.131368,-7241.384069,431584.187500
1422,1,0.073041,-0.094995,0.115317,-30774.476237,-234786.325521,-19975.981781,130064.366536,8382.087809,-14292.057830,273077.093750
1423,1,0.058662,-0.080616,0.019220,61790.912598,-144804.714844,17415.569720,41126.308594,-7661.287772,6916.018755,201148.515625
1424,1,0.058662,-0.080616,0.038439,66197.340434,-135452.779622,29666.200521,35241.157227,-7212.341034,5597.657369,196266.390625
1425,1,0.058662,-0.080616,0.057659,65185.953389,-136900.401042,34219.388875,36299.847331,-4452.127014,4943.167877,253076.734375
1426,1,0.058662,-0.080616,0.076878,62513.442546,-134593.023438,32832.351329,33844.611328,-4410.206696,1885.067753,209104.921875
1427,1,0.058662,-0.080616,0.096098,62311.505274,-133167.420898,25523.073552,35221.159831,3354.710821,885.382730,209104.921875
1428,1,0.058662,-0.080616,0.115317,63807.793945,-125884.144141,18418.153510,32688.962598,9088.419275,-7002.060490,186677.453125
1429,1,0.044283,-0.066236,0.019220,137883.476981,-72278.838728,57001.548152,-32328.584821,-1343.193487,-3700.110073,201148.515625
1430,1,0.044283,-0.066236,0.038439,161536.209635,-52024.275065,84713.736476,-50933.051107,-689.165995,-312.016987,355387.156250
1431,1,0.044283,-0.066236,0.057659,157855.391602,-50763.384440,92023.200439,-49717.647461,-2679.375264,1824.489271,348077.093750
1432,1,0.044283,-0.066236,0.076878,146680.909180,-48947.750326,91468.915853,-50530.185547,-9280.794413,6550.450073,234885.203125
1433,1,0.044283,-0.066236,0.096098,154700.308350,-50731.231120,82382.283366,-50459.499023,-2843.960327,9326.015361,306116.937500
1434,1,0.044283,-0.066236,0.115317,168726.044596,-48374.870117,56369.502502,-51776.063802,3567.750631,3541.757737,209680.156250
1435,1,0.029903,-0.051857,0.019220,214998.713449,15423.736328,117984.024833,-130216.862165,28831.989075,-25386.272008,232533.140625
1436,1,0.029903,-0.051857,0.038439,228978.043620,22969.977865,152712.019613,-146165.454427,15830.315898,-4618.190292,355387.156250
1437,1,0.029903,-0.051857,0.057659,220724.523438,27719.119792,157434.028239,-145577.640625,4143.672162,-1408.500326,348077.093750
1438,1,0.029903,-0.051857,0.076878,222032.894857,28173.017578,163956.040039,-142512.798828,-7210.991585,8214.420390,315838.937500
1439,1,0.029903,-0.051857,0.096098,214513.859375,27479.347005,155584.773641,-142458.335612,-24354.951131,16717.486084,611584.187500
1440,1,0.029903,-0.051857,0.115317,195456.925171,-9264.257812,108117.731964,-117507.122070,-22656.494995,30409.412689,244197.781250
1441,1,-0.149265,0.101481,0.019220,-155218.535993,-452752.479911,-61501.502607,-280989.446429,9449.470782,9305.925223,701614.312500
1442,1,-0.149265,0.101481,0.038439,-177463.634766,-484184.191406,-92871.636180,-275970.477865,6953.108632,16624.477132,721192.500000
1443,1,-0.149265,0.101481,0.057659,-178947.401042,-471591.404948,-102038.436361,-272517.457031,3089.526744,6255.622813,659391.562500
1444,1,-0.149265,0.101481,0.076878,-175991.932292,-472902.585938,-108337.701335,-268647.076823,-1635.674672,-2891.491987,642430.250000
1445,1,-0.149265,0.101481,0.096098,-168913.484375,-477852.888021,-97838.842672,-263233.158854,-10621.721792,-10906.625867,716740.937500
1446,1,-0.149265,0.101481,0.115317,-129232.238281,-405523.063281,-51435.467957,-233511.531250,-14205.306326,-19392.821875,710198.250000
1447,1,-0.158839,0.085724,0.019220,-174590.211914,-508660.531250,-64989.442383,-278141.957031,-3183.930308,255.794581,689492.937500
1448,1,-0.158839,0.085724,0.038439,-172234.000000,-522871.924479,-87006.335795,-270023.178385,-786.688873,4357.560626,721192.500000
1449,1,-0.158839,0.085724,0.057659,-167845.281250,-525092.846354,-102545.270040,-266197.579427,-1321.851939,-426.052158,430204.781250
1450,1,-0.158839,0.085724,0.076878,-164782.870443,-520237.997396,-102932.712575,-265635.100260,-256.096362,-3678.305440,694982.875000
1451,1,-0.158839,0.085724,0.096098,-162844.332031,-508871.458333,-89070.850515,-260469.160156,-2286.454628,-13424.274780,694216.000000
1452,1,-0.158839,0.085724,0.115317,-150337.145926,-476770.949777,-53564.759975,-253007.927455,1231.344923,-12678.629580,685442.250000
1453,1,-0.166756,0.069073,0.019220,-158116.267578,-512978.615625,-58503.152637,-251092.164062,-13554.662219,-6509.302753,689492.937500
1454,1,-0.166756,0.069073,0.038439,-129950.746419,-515850.958333,-73713.725606,-235390.787760,-7912.530294,-9706.462809,626560.125000
1455,1,-0.166756,0.069073,0.057659,-128071.852539,-514586.770833,-89085.946757,-237957.466146,-2038.589213,-4743.645101,629220.125000
1456,1,-0.166756,0.069073,0.076878,-127912.564453,-516000.945312,-89028.630147,-240484.256510,31.897050,-1753.796883,632016.562500
1457,1,-0.166756,0.069073,0.096098,-128853.719076,-514117.940104,-77855.629069,-239387.042969,-739.763991,-2531.874855,632016.562500
1458,1,-0.166756,0.069073,0.115317,-142771.592188,-529249.384375,-58208.659375,-255383.081250,6719.672552,10773.730811,685442.250000
1459,1,-0.172933,0.051700,0.019220,-92338.930176,-460899.828125,-44916.861328,-194050.447917,-10692.311999,-21790.361613,512081.093750
1460,1,-0.172933,0.051700,0.038439,-87541.311849,-466461.781250,-70560.323324,-188131.280599,-8272.598918,-23178.705241,518874.437500
1461,1,-0.172933,0.051700,0.057659,-93215.279622,-468316.789062,-79289.817708,-191313.929688,-1463.661115,-7588.484708,523024.937500
1462,1,-0.172933,0.051700,0.076878,-94330.348633,-467813.825521,-80161.987793,-191314.352865,-838.591354,808.769951,517399.250000
1463,1,-0.172933,0.051700,0.096098,-104991.458984,-466731.416667,-72605.843506,-197033.020182,4725.872095,13710.076477,365848.875000
1464,1,-0.172933,0.051700,0.115317,-99889.961589,-457209.307292,-49293.409424,-194133.031901,17804.306641,24510.860298,398738.718750
1465,1,-0.177305,0.033788,0.019220,-40213.495797,-329949.819196,-40158.196708,-167206.935268,-7082.836321,-43516.988491,518874.437500
1466,1,-0.177305,0.033788,0.038439,-48371.768911,-347793.326823,-59406.062663,-159546.965495,-3264.665934,-33855.198242,518874.437500
1467,1,-0.177305,0.033788,0.057659,-49923.783834,-346562.744792,-57677.345052,-157627.306641,1462.040390,-14783.992635,371763.125000
1468,1,-0.177305,0.033788,0.076878,-53049.106333,-351105.171875,-63157.753092,-155278.992188,-2518.685104,2079.925680,376357.468750
1469,1,-0.177305,0.033788,0.096098,-57677.196543,-349441.622396,-60737.804606,-161763.914714,6538.162048,23103.519653,507801.062500
1470,1,-0.177305,0.033788,0.115317,-42126.386475,-319849.479911,-37801.872013,-172293.868304,12741.078426,41082.068290,391302.093750
1471,1,-0.057813,0.015524,0.115317,418752.281250,-34919.465594,45423.312195,-12426.900728,30039.922712,4313.720555,598907.375000
1472,1,-0.057813,0.015524,0.096098,442207.270833,-34331.111674,82125.634928,-7507.803960,25096.561076,1983.807798,542730.125000
1473,1,-0.057813,0.015524,0.076878,436820.479167,-32780.058695,84968.671875,1256.767578,11729.550802,4096.757777,403374.937500
1474,1,-0.057813,0.015524,0.057659,435761.716146,-33712.066081,85707.119466,-3161.649863,-11677.498067,2051.587799,403374.937500
1475,1,-0.057813,0.015524,0.038439,426883.479167,-43498.656657,67446.986654,-14593.458579,-30889.049561,3564.059886,403057.843750
1476,1,-0.057813,0.015524,0.019220,403998.300000,-59893.981250,43797.868042,-20792.836865,-33712.188184,-2918.566321,417460.875000
1477,1,-0.078149,0.015524,0.115317,414190.023438,3643.070862,14782.716715,-3344.872588,3066.142816,3955.279887,380036.312500
1478,1,-0.078149,0.015524,0.096098,453835.265625,9923.831141,34134.827056,756.245200,7550.932312,3937.809870,400885.593750
1479,1,-0.078149,0.015524,0.076878,457830.111979,9995.083944,43410.805094,4552.052409,5833.542211,1821.386093,453590.218750
1480,1,-0.078149,0.015524,0.057659,454349.617188,10422.080975,43313.553238,4231.446121,-5583.497121,3401.660324,403374.937500
1481,1,-0.078149,0.015524,0.038439,446632.848958,8572.552663,25649.149150,-855.759513,-10610.581563,-2031.502274,427305.718750
1482,1,-0.078149,0.015524,0.019220,423738.031250,4859.132726,23239.300212,2802.421906,-11020.212199,-5906.927216,379262.343750
1483,1,-0.098484,0.015524,0.115317,413503.859375,-679.358006,453.205819,-5213.889409,-1609.581299,1793.976430,425726.781250
1484,1,-0.098484,0.015524,0.096098,451705.486979,1339.261861,6252.323730,-3980.291585,-900.201681,2367.965919,461901.406250
1485,1,-0.098484,0.015524,0.076878,463720.877604,1099.498052,10875.513661,-2720.649048,710.669207,857.226426,455299.125000
1486,1,-0.098484,0.015524,0.057659,461756.606771,1290.721427,10986.898961,-3023.739563,-309.416321,189.182873,450585.031250
1487,1,-0.098484,0.015524,0.038439,445383.052083,1320.250332,3018.287473,-2013.256172,-2398.236524,-702.967081,438911.406250
1488,1,-0.098484,0.015524,0.019220,417004.025000,396.615686,2448.793750,-2677.469336,-2760.648346,-3807.818164,414745.250000
1489,1,-0.118820,0.015524,0.115317,419989.779018,-339.983939,727.818403,-4145.524702,-1095.178672,1586.553637,426417.750000
1490,1,-0.118820,0.015524,0.096098,455476.085938,855.544586,4951.214570,-3961.843150,-3994.059611,911.546440,424040.937500
1491,1,-0.118820,0.015524,0.076878,467714.664062,773.504522,8583.215272,-4570.393351,-1268.848408,44.570089,467774.156250
1492,1,-0.118820,0.015524,0.057659,467750.080729,359.956507,7807.367571,-3696.051524,2185.696488,-183.130963,465619.437500
1493,1,-0.118820,0.015524,0.038439,454534.911458,495.132592,1109.436815,-1768.161079,2497.359294,-2514.628306,465619.437500
1494,1,-0.118820,0.015524,0.019220,418343.580357,-304.455466,1232.936493,-2549.502343,509.011600,-2033.591893,389458.062500
1495,1,-0.139155,0.015524,0.115317,426526.011161,1669.716500,10064.174683,-3674.890632,-4330.013705,2569.600783,387950.812500
1496,1,-0.139155,0.015524,0.096098,461901.164062,3150.032694,24024.400838,-5358.495318,-8131.336690,-164.600208,443819.281250
1497,1,-0.139155,0.015524,0.076878,472991.533854,2394.915227,28346.691121,-7384.505575,-3431.800318,-1444.933823,449441.156250
1498,1,-0.139155,0.015524,0.057659,469023.580729,1814.003984,29115.373454,-5425.345764,5347.928588,-1442.615630,444668.312500
1499,1,-0.139155,0.015524,0.038439,455882.982143,1604.531546,19098.243251,-2854.713313,8838.158358,-2537.659173,465619.437500
1500,1,-0.139155,0.015524,0.019220,424949.690625,1980.354980,6193.337744,-1233.613797,2922.185364,-659.573523,393924.968750
1501,1,-0.159491,0.015524,0.115317,429672.201172,2990.941562,39286.649339,-6204.696457,-18592.748665,1559.450133,377503.593750
1502,1,-0.159491,0.015524,0.096098,472702.687500,13330.306462,73295.036458,-17107.047312,-19873.832601,-104.158061,469324.656250
1503,1,-0.159491,0.015524,0.076878,479781.440104,10619.005575,80157.828125,-17763.265584,-6462.013265,-544.631906,450131.968750
1504,1,-0.159491,0.015524,0.057659,475549.486979,6042.252187,73687.784180,-12673.520447,7827.156753,-4119.761653,409153.781250
1505,1,-0.159491,0.015524,0.038439,460548.072266,7951.558743,57619.234009,-6525.530488,19201.101335,-2133.014699,405885.750000
1506,1,-0.159491,0.015524,0.019220,442318.062500,3582.945783,31659.671088,-5502.480969,19194.298338,-1147.754604,448849.187500
1507,1,-0.123754,0.101800,0.115317,198012.109096,72029.695592,99926.270647,-194469.764788,-10127.619088,23667.112061,464366.625000
1508,1,-0.123754,0.101800,0.096098,224259.036458,91838.406250,132534.473958,-232897.077799,-3569.013722,11334.626373,842186.812500
1509,1,-0.123754,0.101800,0.076878,228795.323242,96394.834717,141588.184245,-236270.447398,-5648.430806,5507.362882,85841.242188
1510,1,-0.123754,0.101800,0.057659,245537.752116,93146.033854,130114.996257,-236415.854655,12876.757812,-9559.470866,85841.242188
1511,1,-0.123754,0.101800,0.038439,247532.171224,116445.447917,124313.419800,-225821.971924,7190.193522,-27454.355306,553297.000000
1512,1,-0.123754,0.101800,0.019220,243602.869792,91762.022298,107093.963379,-226201.138997,9016.438273,-15015.535573,276853.437500
1513,1,-0.109375,0.087421,0.115317,185349.765346,14341.861607,51608.974697,-95808.787877,5002.938146,7567.833069,169831.625000
1514,1,-0.109375,0.087421,0.096098,219752.179688,32226.049805,84830.453084,-123799.914347,-1157.947075,9467.509399,462578.062500
1515,1,-0.109375,0.087421,0.076878,224467.910156,32518.796875,94383.295573,-130169.366699,1384.959226,1933.940741,296988.781250
1516,1,-0.109375,0.087421,0.057659,230368.207682,40954.838216,95778.214803,-129053.198659,607.262502,-4172.997190,296988.781250
1517,1,-0.109375,0.087421,0.038439,230303.979492,48591.076172,78777.363464,-134608.504527,9535.585612,-11514.427002,553297.000000
1518,1,-0.109375,0.087421,0.019220,214616.203125,38779.713309,58205.612026,-122543.395422,-180.289455,-7869.144287,140851.437500
1519,1,-0.094995,0.073041,0.115317,118501.370257,-56711.007533,15777.520857,-29351.332241,7080.929195,-2265.277047,169660.375000
1520,1,-0.094995,0.073041,0.096098,135961.353516,-45753.181641,29020.831309,-46272.283244,-125.251366,2023.719523,160146.015625
1521,1,-0.094995,0.073041,0.076878,141315.356771,-44574.979818,34897.963460,-50661.768066,-687.869414,-318.786134,161330.609375
1522,1,-0.094995,0.073041,0.057659,144362.447266,-37251.801107,33302.001180,-52868.609296,276.389359,-2788.942139,296988.781250
1523,1,-0.094995,0.073041,0.038439,139490.126953,-36657.691732,27290.937907,-50437.375903,657.543532,-886.975087,159873.921875
1524,1,-0.094995,0.073041,0.019220,128826.895647,-56781.537388,14427.428624,-39949.988944,-1948.228082,8267.423641,154542.078125
1525,1,-0.080616,0.058662,0.115317,48828.021031,-132284.618025,-10574.516644,45496.030518,3991.258307,-6987.536046,194083.359375
1526,1,-0.080616,0.058662,0.096098,59119.608608,-119801.691964,-9659.202977,32758.414481,2819.376374,-5408.137493,154879.406250
1527,1,-0.080616,0.058662,0.076878,62339.341960,-118712.702474,-8136.168833,27555.900696,-1655.834971,-3698.342514,154879.406250
1528,1,-0.080616,0.058662,0.057659,66131.530924,-115229.279948,-10632.177124,26896.671204,-385.145798,2425.312332,169542.031250
1529,1,-0.080616,0.058662,0.038439,62366.508667,-118752.397786,-12006.803202,27171.880686,339.947502,4371.539825,159873.921875
1530,1,-0.080616,0.058662,0.019220,62111.328927,-126202.410156,-8512.288365,28435.143171,-3730.531714,12544.621567,172167.078125
1531,1,-0.066236,0.044283,0.115317,-50094.102743,-190876.740885,-31626.158824,127780.142415,-673.066849,-20171.813232,425520.937500
1532,1,-0.066236,0.044283,0.096098,-31541.963574,-198087.450391,-40323.696191,129227.175293,2371.958032,-1633.282202,268599.281250
1533,1,-0.066236,0.044283,0.076878,-14638.557048,-179493.684245,-36721.208659,101609.518717,2386.159370,-9559.639349,368950.125000
1534,1,-0.066236,0.044283,0.057659,-13815.703044,-181786.271484,-38884.963094,107181.860107,-3388.965200,5692.094243,206193.437500
1535,1,-0.066236,0.044283,0.038439,-15188.303426,-195982.374349,-41536.155396,109002.338175,506.867477,6326.188110,446706.750000
1536,1,-0.066236,0.044283,0.019220,-4424.906110,-188912.902344,-28635.754674,97492.735491,-1443.396306,15506.779314,449861.312500
1537,1,-0.051857,0.029903,0.115317,-113988.774740,-324385.057292,-70949.914998,176562.490234,6101.895650,-14144.365031,594733.375000
1538,1,-0.051857,0.029903,0.096098,-121950.086589,-315161.216146,-75754.464111,171874.460775,-1525.742818,-2945.788198,425520.937500
1539,1,-0.051857,0.029903,0.076878,-120181.386719,-314512.152344,-83054.950439,167966.734701,7014.724335,-6318.094482,589527.312500
1540,1,-0.051857,0.029903,0.057659,-116696.810221,-301805.219401,-82112.672933,169990.200928,-4930.278198,-2694.901902,162379.781250
1541,1,-0.051857,0.029903,0.038439,-104947.167318,-313206.561198,-82965.788411,173772.884359,704.282936,5074.695292,162379.781250
1542,1,-0.051857,0.029903,0.019220,-80102.531250,-286567.573730,-57983.404175,150315.869843,-1758.115108,5285.065796,169293.093750
1543,1,0.149265,-0.101481,0.019220,-156529.561198,-492278.351562,-56545.084279,-292148.677083,-9916.582265,-23423.008024,463848.468750
1544,1,0.149265,-0.101481,0.038439,-166314.423828,-471376.419271,-69512.627207,-289475.276042,-3831.228760,-3174.437361,741657.562500
1545,1,0.149265,-0.101481,0.057659,-165121.011068,-468936.510417,-77690.987793,-281430.006510,-2048.537150,398.361224,439377.625000
1546,1,0.149265,-0.101481,0.076878,-162317.755534,-470051.682292,-75233.126831,-280366.549479,4791.911702,3162.707723,706408.250000
1547,1,0.149265,-0.101481,0.096098,-174178.689844,-502266.215625,-79624.482178,-295004.623437,4079.624115,7935.425977,711138.562500
1548,1,0.149265,-0.101481,0.115317,-142705.333705,-463743.867188,-60455.508963,-269263.613839,11547.749411,19417.602260,700606.062500
1549,1,0.158839,-0.085724,0.019220,-170684.561198,-525230.080729,-57560.112101,-273763.555990,2778.481995,-9456.986867,443847.843750
1550,1,0.158839,-0.085724,0.038439,-173527.643229,-531462.450521,-81680.510742,-273344.649740,7846.935969,3486.017888,459648.562500
1551,1,0.158839,-0.085724,0.057659,-182153.385742,-526239.552083,-96332.731120,-273575.532552,3216.576945,-788.862091,760429.312500
1552,1,0.158839,-0.085724,0.076878,-184633.589193,-526233.231771,-93996.754028,-279681.222656,3396.030385,-422.909373,760429.312500
1553,1,0.158839,-0.085724,0.096098,-173174.690755,-531717.528646,-89951.238678,-279048.785156,-194.151662,5733.208221,711138.562500
1554,1,0.158839,-0.085724,0.115317,-174826.933594,-516392.507812,-65601.922110,-267686.428571,-825.202672,13112.090785,773173.250000
1555,1,0.166756,-0.069073,0.019220,-144148.051758,-503158.234375,-48480.668304,-232437.192383,7408.378799,-71.650822,455529.062500
1556,1,0.166756,-0.069073,0.038439,-160461.425130,-561153.010417,-91060.084473,-240664.868490,10755.429688,12943.930689,445712.656250
1557,1,0.166756,-0.069073,0.057659,-150623.690848,-547266.957589,-98471.694615,-224823.947545,2908.231882,714.494005,651725.562500
1558,1,0.166756,-0.069073,0.076878,-146066.940848,-536793.609375,-95966.940848,-222173.793527,-1327.726105,-716.478361,409235.218750
1559,1,0.166756,-0.069073,0.096098,-143823.101004,-534147.174107,-86709.957520,-223841.960938,-1745.993796,-1913.911691,643615.125000
1560,1,0.166756,-0.069073,0.115317,-137085.085100,-522724.529018,-56835.222866,-226954.777902,-3559.788583,-6557.593384,773173.250000
1561,1,0.172933,-0.051700,0.019220,-90777.945382,-476253.272321,-50799.303066,-196894.251116,6495.562308,21388.208391,465634.125000
1562,1,0.172933,-0.051700,0.038439,-96434.773112,-511056.638021,-81340.593791,-187552.639323,4693.222229,26673.853831,405738.968750
1563,1,0.172933,-0.051700,0.057659,-85305.827148,-513189.895833,-81712.429688,-181449.205729,1012.338589,6223.762820,651725.562500
1564,1,0.172933,-0.051700,0.076878,-78701.665365,-505954.242188,-81337.846680,-185407.101562,-2139.418939,-2019.216626,549482.562500
1565,1,0.172933,-0.051700,0.096098,-81286.733724,-497629.682292,-70704.847656,-186106.949219,-4267.277189,-11108.958293,549482.562500
1566,1,0.172933,-0.051700,0.115317,-104090.886998,-482070.345982,-48352.803397,-208171.952009,-7452.903719,-25628.563023,472195.718750
1567,1,0.177305,-0.033788,0.019220,-16462.189453,-374770.273438,-47455.027089,-175630.981120,97.825887,45357.818685,532292.500000
1568,1,0.177305,-0.033788,0.038439,-27200.874805,-403271.053125,-54111.381360,-174609.714062,-2516.103857,39013.879297,538170.375000
1569,1,0.177305,-0.033788,0.057659,-27944.613110,-405675.831250,-65345.717676,-171113.684375,-862.765264,10768.157080,438763.468750
1570,1,0.177305,-0.033788,0.076878,-19321.527720,-387063.270833,-61781.048421,-169010.484375,-1294.498678,-5786.040357,467928.531250
1571,1,0.177305,-0.033788,0.096098,-18027.086833,-379525.828125,-51340.830811,-174290.962240,-4650.931951,-24238.999756,383799.875000
1572,1,0.177305,-0.033788,0.115317,-42471.311384,-365327.518973,-38431.879534,-186669.037946,-8924.997602,-42556.373465,383799.875000
1573,1,0.057813,-0.015524,0.115317,512022.259375,-10095.657031,85816.867383,10240.712061,-37767.325928,-5656.887704,422123.843750
1574,1,0.057813,-0.015524,0.096098,479314.437500,-34588.962433,76512.550781,-885.523552,-19876.961853,-4600.790157,369348.812500
1575,1,0.057813,-0.015524,0.076878,492200.642857,-37665.830688,94474.145926,-7571.100900,-13184.534877,-602.373169,397945.781250
1576,1,0.057813,-0.015524,0.057659,501572.956250,-20495.187891,94362.403516,2242.633105,15386.740430,-1926.397980,645643.750000
1577,1,0.057813,-0.015524,0.038439,492268.601562,-40976.191488,83437.323242,522.862630,27977.340902,-4677.783875,645643.750000
1578,1,0.057813,-0.015524,0.019220,468616.593750,-53810.075792,47584.006914,4864.379679,36767.365343,6736.474772,735819.812500
1579,1,0.078149,-0.015524,0.115317,450581.628906,15079.605392,25754.573730,7518.671852,-5072.507523,1902.429106,409227.937500
1580,1,0.078149,-0.015524,0.096098,490396.968750,5784.698446,37922.221812,4847.662649,-4358.741419,-2041.824524,472966.062500
1581,1,0.078149,-0.015524,0.076878,503041.158854,4159.316024,45246.287191,6006.958516,-3048.965562,-841.659582,469386.468750
1582,1,0.078149,-0.015524,0.057659,507533.901042,9855.308296,49036.441406,11318.564209,5723.138960,270.721456,472921.875000
1583,1,0.078149,-0.015524,0.038439,498789.565104,9823.553131,42663.107503,9908.635905,10480.489665,61.311854,472921.875000
1584,1,0.078149,-0.015524,0.019220,469862.921875,969.693583,19463.502909,9362.288025,7930.944880,4389.759237,452918.281250
1585,1,0.098484,-0.015524,0.115317,438750.601562,-28.262222,221.241684,1873.968166,2085.366787,-1367.661771,401605.343750
1586,1,0.098484,-0.015524,0.096098,481107.401042,459.866094,9400.733012,1854.578611,841.249517,-646.837677,487518.093750
1587,1,0.098484,-0.015524,0.076878,496814.937500,-79.856366,13730.403102,2736.314707,-528.553673,228.878798,488346.093750
1588,1,0.098484,-0.015524,0.057659,497757.747396,649.318265,14392.462179,4622.738180,935.891001,53.393583,482295.093750
1589,1,0.098484,-0.015524,0.038439,485571.096354,1327.246230,8694.201823,4848.395386,1425.471038,1395.673210,492248.187500
1590,1,0.098484,-0.015524,0.019220,445591.759766,-899.704002,2654.125648,6774.161095,-1474.527199,3158.675335,411629.218750
1591,1,0.118820,-0.015524,0.115317,439669.088542,-1960.532338,-1204.651530,2707.205344,1740.820524,-2291.307098,403738.062500
1592,1,0.118820,-0.015524,0.096098,474099.708333,-445.704081,3434.482242,2256.266864,2946.706515,157.010569,483344.968750
1593,1,0.118820,-0.015524,0.076878,490187.867188,58.414361,8142.582855,2953.786400,1092.863342,781.668430,483344.968750
1594,1,0.118820,-0.015524,0.057659,491619.963542,840.006716,9957.475919,3264.040527,-1500.552442,1625.288230,494897.906250
1595,1,0.118820,-0.015524,0.038439,478718.640625,1759.435720,3560.799877,4331.484563,-3508.631340,2142.768029,469697.812500
1596,1,0.118820,-0.015524,0.019220,441287.191964,811.072251,-624.839600,5685.756958,-3429.572388,1920.253353,446549.281250
1597,1,0.139155,-0.015524,0.115317,432814.761719,2803.992926,5879.685844,1077.035568,3082.217659,-1885.444429,412099.718750
1598,1,0.139155,-0.015524,0.096098,471925.445312,4297.521052,21079.817627,2019.275249,8050.183695,-142.657581,450413.875000
1599,1,0.139155,-0.015524,0.076878,481625.799479,3381.000985,27645.827189,554.703679,2798.604614,2687.690786,476911.343750
1600,1,0.139155,-0.015524,0.057659,482089.580729,2508.382853,28737.761882,292.301168,-5495.107445,2409.510610,458010.562500
1601,1,0.139155,-0.015524,0.038439,469344.226562,1145.531677,16839.765343,72.386815,-11353.750842,2392.611231,469697.812500
1602,1,0.139155,-0.015524,0.019220,446883.637500,2552.364990,6985.069116,233.740869,-6538.343091,1053.010292,469697.812500
1603,1,0.159491,-0.015524,0.115317,446099.214286,13104.117868,41856.893502,-8956.055198,20861.334664,-4006.855445,429734.406250
1604,1,0.159491,-0.015524,0.096098,464526.515625,14350.263387,68861.090007,-10499.686300,21373.821248,2458.110860,421341.375000
1605,1,0.159491,-0.015524,0.076878,468025.481771,12282.014285,76247.672119,-14450.847656,6226.112773,1571.147710,443203.875000
1606,1,0.159491,-0.015524,0.057659,474961.520833,9530.762217,76130.058431,-11391.271749,-11170.545227,1676.187113,441420.281250
1607,1,0.159491,-0.015524,0.038439,466396.843750,5380.916974,70651.452246,-8096.498157,-27496.595459,6652.580115,421410.875000
1608,1,0.159491,-0.015524,0.019220,460600.312500,10555.986738,42429.327340,-10684.757036,-26382.623744,1820.488871,440204.593750
1609,1,0.123754,-0.101800,0.115317,176305.915318,33470.681362,103808.998465,-163662.217076,14167.096157,-32720.390660,884656.750000
1610,1,0.123754,-0.101800,0.096098,205188.639648,53179.126953,150987.998047,-196496.638672,2791.953247,-22963.183146,424867.156250
1611,1,0.123754,-0.101800,0.076878,199483.499349,51377.005859,164198.398112,-193178.422526,3286.833496,-6399.971842,415222.750000
1612,1,0.123754,-0.101800,0.057659,209962.591309,62343.412109,163756.658529,-205154.327799,-10357.180440,9553.689808,422449.000000
1613,1,0.123754,-0.101800,0.038439,211818.715234,75179.693750,147415.170313,-232237.035547,-10115.322754,43109.449219,571097.125000
1614,1,0.123754,-0.101800,0.019220,190712.955139,56518.563354,110494.403595,-165433.193359,1361.385780,25537.094360,192423.437500
1615,1,0.109375,-0.087421,0.115317,185050.916667,-24791.263489,66260.767232,-78277.342448,-842.654073,-9403.092143,189528.203125
1616,1,0.109375,-0.087421,0.096098,186826.170410,-15008.917287,97282.318237,-88689.228516,6194.976715,-12595.471652,236483.468750
1617,1,0.109375,-0.087421,0.076878,192724.495443,-15298.919922,110415.223348,-84050.650065,539.204189,-537.785665,249305.750000
1618,1,0.109375,-0.087421,0.057659,191277.738322,-20100.481283,110774.338053,-83722.059896,286.233607,189.340658,249305.750000
1619,1,0.109375,-0.087421,0.038439,209617.231543,10229.304297,102018.694873,-101845.799609,-16265.396387,15382.501953,571097.125000
1620,1,0.109375,-0.087421,0.019220,221500.708426,-8976.036133,85709.174090,-102765.690848,-163.457973,10886.834926,236712.593750
1621,1,0.094995,-0.073041,0.115317,88228.886800,-97479.216614,25753.876170,4451.530273,-7675.452749,3171.742421,198138.968750
1622,1,0.094995,-0.073041,0.096098,97166.742839,-100061.629700,36021.642324,-1324.678548,626.938304,-3383.804131,217399.640625
1623,1,0.094995,-0.073041,0.076878,103369.966146,-99776.927083,43591.770142,-2745.835449,-2224.995941,2331.492668,217399.640625
1624,1,0.094995,-0.073041,0.057659,113065.211263,-96282.942220,47107.790283,-4327.411621,3248.739589,3655.044988,191076.031250
1625,1,0.094995,-0.073041,0.038439,102927.111165,-102516.496419,40307.257406,1050.458822,-5398.109123,764.448191,183903.031250
1626,1,0.094995,-0.073041,0.019220,111360.543457,-100523.157715,29090.823746,-7748.403646,6579.590332,-7818.776713,218430.312500
1627,1,0.080616,-0.058662,0.115317,4617.338100,-196940.791295,-13492.243914,92772.602679,-4168.527248,9001.074707,198138.968750
1628,1,0.080616,-0.058662,0.096098,13124.410156,-191033.041667,-11228.082916,86515.687174,-646.310954,5229.368210,213692.296875
1629,1,0.080616,-0.058662,0.076878,19207.638346,-185423.401042,-6060.267476,83561.547201,-1649.151787,-231.024363,343600.625000
1630,1,0.080616,-0.058662,0.057659,21739.235352,-179946.407552,-4807.843850,79199.181641,640.382395,-1186.396604,336741.218750
1631,1,0.080616,-0.058662,0.038439,16985.029297,-182624.947266,-7165.207721,79764.008789,1875.691307,-3594.179891,183903.031250
1632,1,0.080616,-0.058662,0.019220,20149.754743,-188804.898996,-4897.374041,80777.492746,6071.771249,-13944.222953,349715.843750
1633,1,0.066236,-0.044283,0.115317,-70905.329904,-262360.504464,-40241.633959,168274.008371,-2207.912271,9996.826974,230996.359375
1634,1,0.066236,-0.044283,0.096098,-65925.446859,-260308.423177,-41930.341064,169045.368164,-5915.931473,13393.464494,220580.437500
1635,1,0.066236,-0.044283,0.076878,-66072.073568,-261966.324219,-43374.338298,168848.166667,195.369710,-1282.400506,343600.625000
1636,1,0.066236,-0.044283,0.057659,-66884.097168,-262540.522135,-45305.971273,168485.095703,1382.716306,-2644.722090,550800.812500
1637,1,0.066236,-0.044283,0.038439,-68336.401204,-268576.278646,-47573.431274,170869.096680,1118.339973,-3686.945872,581433.062500
1638,1,0.066236,-0.044283,0.019220,-54933.812360,-260383.075893,-31437.503383,159453.968192,3061.663715,-16314.325649,222929.843750
1639,1,0.051857,-0.029903,0.115317,-145751.292969,-375643.416853,-74181.511440,237499.549386,5194.932789,2671.615479,244197.781250
1640,1,0.051857,-0.029903,0.096098,-167861.290283,-404481.307292,-95391.110677,248609.013021,-12973.831092,3069.041239,777705.187500
1641,1,0.051857,-0.029903,0.076878,-180636.146159,-394675.829427,-102878.902018,243665.265625,1876.269960,-1191.796335,711197.875000
1642,1,0.051857,-0.029903,0.057659,-165916.041097,-383240.696615,-97060.411133,242446.975260,435.892391,4179.225092,738402.750000
1643,1,0.051857,-0.029903,0.038439,-165467.816488,-394315.571615,-101525.439697,246991.030599,1682.055440,7158.132233,738402.750000
1644,1,0.051857,-0.029903,0.019220,-134154.269287,-364932.285645,-74496.437866,221713.786133,-3472.610216,-5861.596550,239386.500000
1645,1,-0.015524,0.057813,0.019220,-34717.123413,-1415183.789062,-97658.964600,-30995.062714,-9432.834442,-49843.369667,1272424.000000
1646,1,-0.015524,0.057813,0.038439,-49723.188151,-1439123.260417,-148741.023438,-48839.835612,-8699.878530,-40806.783386,1347880.500000
1647,1,-0.015524,0.057813,0.057659,-42062.552134,-1443566.729167,-156335.862956,-52930.266113,-4249.266084,-9241.700043,1309611.125000
1648,1,-0.015524,0.057813,0.076878,-45614.873779,-1453884.322917,-159725.306641,-56373.050456,187.732513,16904.869873,1404869.000000
1649,1,-0.015524,0.057813,0.096098,-41898.350057,-1437888.041667,-144676.844564,-48468.618571,1854.128082,38802.896973,1276506.125000
1650,1,-0.015524,0.057813,0.115317,-29502.610404,-1397975.741071,-91195.635385,-32137.440321,7062.384661,45536.042376,1276506.125000
1651,1,-0.015524,0.078149,0.019220,-5712.094570,-1386211.964286,-18325.110395,-5563.428720,-3281.481498,-1900.900785,1374047.500000
1652,1,-0.015524,0.078149,0.038439,-10969.108720,-1427256.822917,-54663.525879,-9941.296895,-3001.954753,-9814.998189,1400333.500000
1653,1,-0.015524,0.078149,0.057659,-9093.641546,-1425405.395833,-66157.155111,-14685.858154,-1407.783432,-1511.165278,1409160.250000
1654,1,-0.015524,0.078149,0.076878,-9492.331563,-1423572.604167,-65125.678223,-13707.696025,-899.366837,9794.320190,1409421.750000
1655,1,-0.015524,0.078149,0.096098,-10219.581685,-1415748.239583,-53243.237142,-8632.165098,-1412.996674,13554.119141,1399244.000000
1656,1,-0.015524,0.078149,0.115317,-6235.844448,-1367340.669643,-20582.377389,-5802.819071,3488.797259,4219.005053,1303408.250000
1657,1,-0.015524,0.098484,0.019220,-1104.779258,-1372750.428571,-5218.597142,-4180.463675,-2304.426734,10464.197826,1365281.875000
1658,1,-0.015524,0.098484,0.038439,-2075.817918,-1410278.333333,-20015.562459,-4375.207825,-1861.459442,8310.981794,1394728.000000
1659,1,-0.015524,0.098484,0.057659,-2174.106986,-1417696.750000,-30189.869466,-4775.306913,-1140.653337,4411.380594,1399257.500000
1660,1,-0.015524,0.098484,0.076878,-2492.381989,-1418115.656250,-29206.547770,-3855.381187,-143.993666,2243.849909,1397365.750000
1661,1,-0.015524,0.098484,0.096098,-2261.172272,-1405128.645833,-19057.233276,-3083.552996,1779.064519,-1701.387759,1365078.500000
1662,1,-0.015524,0.098484,0.115317,-911.750475,-1359490.366071,-4212.421997,-3393.917472,2626.656152,-5867.426113,1358207.125000
1663,1,-0.015524,0.118820,0.019220,-1108.248627,-1371155.758929,-5784.441110,-5657.798009,-2131.071771,15679.960310,1360987.375000
1664,1,-0.015524,0.118820,0.038439,-1877.902476,-1398755.822917,-21168.978597,-4807.140361,222.498426,19897.852620,1394728.000000
1665,1,-0.015524,0.118820,0.057659,-542.762515,-1403332.697917,-29626.032633,-2507.703793,877.196733,9521.527262,1394728.000000
1666,1,-0.015524,0.118820,0.076878,-1044.209132,-1405585.239583,-29664.731120,-1648.302426,1321.362352,-4464.729797,1393117.375000
1667,1,-0.015524,0.118820,0.096098,-1960.152340,-1398916.656250,-18122.251523,-3263.496214,3275.676183,-12678.509539,1377925.125000
1668,1,-0.015524,0.118820,0.115317,-701.499948,-1362872.812500,-3927.251144,-3257.871196,2315.552111,-11881.790006,1354974.125000
1669,1,-0.015524,0.139155,0.019220,-1580.081225,-1373308.892857,-16031.520037,-8047.178162,-2342.571872,26567.085798,1360987.375000
1670,1,-0.015524,0.139155,0.038439,1254.929199,-1384047.333333,-43958.362874,-7698.340088,1869.669724,35090.615723,1355706.000000
1671,1,-0.015524,0.139155,0.057659,1480.962237,-1382850.520833,-59042.703857,-2794.432086,3558.228363,13992.111918,1345827.375000
1672,1,-0.015524,0.139155,0.076878,-163.486618,-1385721.166667,-61278.819336,1310.455332,5350.467082,-12914.642151,1364342.750000
1673,1,-0.015524,0.139155,0.096098,-1584.878218,-1391983.927083,-46895.455078,-1989.893453,4652.766754,-32530.384847,1391246.875000
1674,1,-0.015524,0.139155,0.115317,202.404909,-1376663.053571,-10411.129828,-2577.492428,1892.911518,-24873.690465,1343426.250000
1675,1,-0.015524,0.159491,0.019220,-42113.558657,-1399048.357143,-65186.449184,17372.525678,2087.661429,55409.166853,1352333.375000
1676,1,-0.015524,0.159491,0.038439,-52486.225911,-1384891.687500,-116231.782389,17647.735881,8787.931646,57615.755208,1201556.000000
1677,1,-0.015524,0.159491,0.057659,-52468.228841,-1362696.906250,-140570.956380,29917.533325,13756.601125,22285.777191,1221514.125000
1678,1,-0.015524,0.159491,0.076878,-58759.717875,-1376143.187500,-152974.083333,43675.071503,6353.095052,-28955.607412,1202533.750000
1679,1,-0.015524,0.159491,0.096098,-63344.078410,-1404783.541667,-135084.920898,35637.583913,7069.424006,-67743.968750,1230918.875000
1680,1,-0.015524,0.159491,0.115317,-47056.872803,-1420490.732143,-59730.267635,23396.509077,9458.300134,-70129.516183,1395408.750000
1681,1,-0.101481,0.149265,0.115317,-229091.090123,-383564.122768,-61320.002511,-312596.772321,-33998.125349,-38245.631975,533953.625000
1682,1,-0.101481,0.149265,0.096098,-241626.805990,-383720.695312,-86753.593953,-309454.954427,-22150.932854,-17255.443339,456882.125000
1683,1,-0.101481,0.149265,0.076878,-227915.709635,-431497.863281,-107658.642578,-290437.924479,-7299.975311,-941.092651,495188.250000
1684,1,-0.101481,0.149265,0.057659,-203876.666667,-453038.294271,-112124.297363,-280412.325521,5619.155558,6845.317627,482149.593750
1685,1,-0.101481,0.149265,0.038439,-189357.060059,-418060.615234,-88592.059143,-272574.142578,15644.574158,20134.505493,474780.500000
1686,1,-0.101481,0.149265,0.019220,-210886.733941,-442212.145833,-74630.110257,-275810.109375,26709.701362,13077.992798,535849.125000
1687,1,-0.085724,0.158839,0.115317,6016.186384,-201655.155692,15568.672712,-184843.561663,-38557.024100,-31237.800049,453395.562500
1688,1,-0.085724,0.158839,0.096098,-12820.852344,-188346.460938,7759.350195,-174936.776562,-32837.500781,-21047.078125,349439.968750
1689,1,-0.085724,0.158839,0.076878,-14172.337891,-221855.940104,8907.308716,-187102.595703,-13955.217509,-9240.865356,340107.093750
1690,1,-0.085724,0.158839,0.057659,1160.224854,-242090.336426,9197.755127,-201689.406738,4452.019458,2505.946289,355314.562500
1691,1,-0.085724,0.158839,0.038439,29021.695173,-206688.167411,9171.987305,-182212.424107,18917.773795,17814.368992,368294.312500
1692,1,-0.085724,0.158839,0.019220,-6826.705078,-215916.575521,10797.252604,-191656.009115,53354.778809,19866.433899,349889.218750
1693,1,-0.069073,0.166756,0.115317,258638.980859,-127347.105933,64071.938281,-43040.096484,-42809.528894,-13458.782861,437307.687500
1694,1,-0.069073,0.166756,0.096098,210866.810832,-133446.379069,77905.362793,-43276.777018,-23848.168701,-9782.886993,381291.312500
1695,1,-0.069073,0.166756,0.076878,233053.615560,-110300.697428,89918.253255,-27335.340169,-9978.236196,-6905.265584,479548.187500
1696,1,-0.069073,0.166756,0.057659,225026.699219,-119553.076953,84688.589453,-39045.332812,3073.741956,-3016.465536,528281.500000
1697,1,-0.069073,0.166756,0.038439,226438.983789,-119029.291016,84589.360059,-43199.871094,15255.416968,-1673.965720,480844.187500
1698,1,-0.069073,0.166756,0.019220,165538.920563,-119824.626282,58630.221710,-86219.698654,42683.948166,13691.652534,452439.812500
1699,1,-0.051700,0.172933,0.115317,238067.294525,-56858.950531,82614.156464,41519.509521,-5893.819542,-13298.287537,437307.687500
1700,1,-0.051700,0.172933,0.096098,252676.784319,-50833.599452,117496.450614,64646.501901,1087.010594,-11828.972286,583439.812500
1701,1,-0.051700,0.172933,0.076878,223964.440848,-48263.475237,130234.311733,63025.012950,-5062.928711,-11722.942819,470520.062500
1702,1,-0.051700,0.172933,0.057659,302978.401782,-35488.833502,137576.987500,78676.433203,-6904.595044,1134.100952,429025.000000
1703,1,-0.051700,0.172933,0.038439,302509.352554,-33270.632573,140883.039714,73917.863607,15257.615356,-3825.781420,193220.531250
1704,1,-0.051700,0.172933,0.019220,238571.099457,-45245.623535,105953.120483,51918.752930,11602.738373,10814.755371,517975.375000
1705,1,-0.033788,0.177305,0.115317,141096.284877,-104402.243007,100411.988351,239312.717355,65456.578195,-11456.274349,531466.750000
1706,1,-0.033788,0.177305,0.096098,184694.444173,-25666.877747,142421.672038,216464.455729,30131.627808,-8955.579631,749073.437500
1707,1,-0.033788,0.177305,0.076878,135398.337565,-55266.957764,137735.667155,237228.932292,9993.300552,-7546.421387,816278.875000
1708,1,-0.033788,0.177305,0.057659,160348.779688,-60052.713477,132954.869531,216745.803906,-6728.481403,290.624512,470520.062500
1709,1,-0.033788,0.177305,0.038439,215620.310352,-85913.670703,144791.549805,221393.348828,-24943.177368,10692.780774,722592.437500
1710,1,-0.033788,0.177305,0.019220,207497.050130,-108497.255168,111877.597005,234707.090820,-63877.637004,8580.625031,184077.718750
1711,1,-0.101800,0.123754,0.019220,-135221.192220,-355310.050944,-55248.809245,160630.237101,13218.652384,-40506.842214,484825.062500
1712,1,-0.101800,0.123754,0.038439,-118290.182292,-314268.715983,-53139.172363,198071.610677,-5427.253098,-14539.642605,209191.156250
1713,1,-0.101800,0.123754,0.057659,-138784.796094,-291437.402051,-56231.078320,233514.598438,-1149.001855,-19981.968282,479224.750000
1714,1,-0.101800,0.123754,0.076878,-141445.857701,-395605.192522,-92145.255859,171044.434710,-596.490758,1717.910366,545546.750000
1715,1,-0.101800,0.123754,0.096098,-134309.486979,-378112.929688,-84065.800130,192923.143717,-9191.722148,19472.005859,529225.312500
1716,1,-0.101800,0.123754,0.115317,-99632.745257,-319745.077706,-50610.163644,163138.798689,-10264.562853,28246.827253,506284.875000
1717,1,-0.087421,0.109375,0.019220,-23574.277222,-206746.382080,-24045.092926,112605.147208,5134.974060,-18873.369781,140851.437500
1718,1,-0.087421,0.109375,0.038439,-44203.997884,-211842.650391,-25381.084513,134935.039917,-369.073491,-5332.386678,312394.531250
1719,1,-0.087421,0.109375,0.057659,-30780.395996,-202942.566081,-28826.694987,132205.508128,-1363.380264,-11379.443762,479224.750000
1720,1,-0.087421,0.109375,0.076878,-44445.799479,-223362.725911,-40898.355713,143781.988581,389.534546,-3479.523697,479224.750000
1721,1,-0.087421,0.109375,0.096098,-48104.844076,-231865.061849,-40341.848145,143597.145325,-4334.115896,13464.458822,169085.046875
1722,1,-0.087421,0.109375,0.115317,-37255.735770,-212485.045201,-30687.574411,125565.906756,-6337.865805,18900.928850,169831.625000
1723,1,-0.073041,0.094995,0.019220,37683.408203,-147831.154576,-8835.484985,54042.588832,7472.360142,-10181.216862,313934.031250
1724,1,-0.073041,0.094995,0.038439,35532.546875,-147322.559245,-3372.660197,55093.409429,2679.967931,-5383.199331,312394.531250
1725,1,-0.073041,0.094995,0.057659,37884.722819,-145102.425781,-4984.595886,54170.642937,1889.669764,-3715.934031,166460.390625
1726,1,-0.073041,0.094995,0.076878,34158.291341,-150846.746094,-11201.031667,56976.101657,1332.049438,-1811.512995,168230.562500
1727,1,-0.073041,0.094995,0.096098,29821.626953,-151658.317057,-12923.502177,60288.288452,-3008.381940,6362.009003,156611.218750
1728,1,-0.073041,0.094995,0.115317,28307.344029,-151716.165179,-13378.582528,60976.864572,-6085.657055,10446.067819,162480.609375
1729,1,-0.058662,0.080616,0.019220,106101.994141,-81741.799125,19547.299787,-14778.244507,7442.587472,-4879.877563,172167.078125
1730,1,-0.058662,0.080616,0.038439,115879.013346,-67974.547994,36272.033610,-23115.760198,2352.211323,313.944316,229546.625000
1731,1,-0.058662,0.080616,0.057659,112300.361328,-65150.201294,38554.674093,-25792.087530,4131.567342,-2397.678528,229546.625000
1732,1,-0.058662,0.080616,0.076878,113581.668294,-66945.966878,36287.537384,-23645.386202,1397.597493,-4319.687543,227961.187500
1733,1,-0.058662,0.080616,0.096098,116370.147135,-66271.264140,26825.572225,-22814.296143,-709.883893,19.555200,138647.109375
1734,1,-0.058662,0.080616,0.115317,96895.214844,-73937.047168,12630.748853,-11071.429248,-9391.490259,5580.611255,138647.109375
1735,1,-0.044283,0.066236,0.019220,179156.438616,-9810.640765,57980.463797,-82202.026210,743.783491,6210.900746,166339.000000
1736,1,-0.044283,0.066236,0.038439,205426.238932,9545.694967,94313.030518,-99400.113790,-3210.859390,8560.606941,408817.312500
1737,1,-0.044283,0.066236,0.057659,185826.909505,13472.449015,96965.961792,-102627.895142,6103.993601,-2349.284943,229546.625000
1738,1,-0.044283,0.066236,0.076878,189995.581380,7549.788656,94826.819784,-98379.906392,-394.488780,-6653.651390,227961.187500
1739,1,-0.044283,0.066236,0.096098,185854.227865,-8690.256165,72919.387227,-97567.198568,11834.852641,-14052.171672,335756.312500
1740,1,-0.044283,0.066236,0.115317,202531.350000,-3916.467285,49234.423047,-106015.794727,-12790.474646,-4573.513672,327482.625000
1741,1,-0.029903,0.051857,0.019220,245635.506696,72836.733259,117570.863002,-169980.084647,-32139.397025,28850.670131,693273.937500
1742,1,-0.029903,0.051857,0.038439,262475.194010,75447.362630,163532.413818,-193229.035482,-14665.145782,19061.147237,701811.000000
1743,1,-0.029903,0.051857,0.057659,268080.312500,80302.472656,178913.437826,-190809.467936,-4601.958883,-515.888468,666034.937500
1744,1,-0.029903,0.051857,0.076878,266956.308594,87811.690755,177977.273763,-181071.987142,7128.632772,-4316.056193,663645.562500
1745,1,-0.029903,0.051857,0.096098,262924.082682,80636.456380,168769.188151,-171748.700846,27670.751536,-28081.760579,335756.312500
1746,1,-0.029903,0.051857,0.115317,268410.016927,76889.895833,127201.490763,-180845.932943,29756.506348,-24691.016073,874540.625000
1747,1,-0.156583,0.114535,0.000000,-53447.703936,-331991.951923,-16786.579214,-203858.921875,3428.472337,35493.654297,329738.781250
1748,1,-0.176800,0.082658,0.000000,-87263.840495,-265976.750977,-10062.964643,-150987.773438,-14349.350474,1269.664378,388481.343750
1749,1,-0.189198,0.044543,0.000000,-71089.575546,-284528.735352,-20047.899704,-184895.962891,-11195.469597,-19137.968587,443855.531250
1750,1,-0.205874,-0.037217,0.000000,-23855.543267,-218045.864583,-3341.860392,142636.216146,-371.615811,1460.570954,345964.937500
1751,1,-0.196474,-0.075519,0.000000,-59684.269322,-108643.289621,7624.189296,82995.306152,-12894.615252,-11773.639701,84846.164062
1752,1,-0.171624,-0.120341,0.000000,-23825.433990,-134139.471497,10412.489437,70635.561768,-6049.573202,-7111.463220,230065.406250
1753,1,-0.146061,-0.150144,0.000000,-79546.490768,-110382.766907,6765.577293,75038.524353,-23173.958298,-819.325134,277527.187500
1754,1,-0.117850,-0.173842,0.000000,-24516.444199,-287204.884277,10886.090458,177859.380859,-23994.802460,12045.785400,483246.437500
1755,1,-0.066199,-0.199929,0.000000,-237763.771973,-132877.360352,-12500.662354,44635.498291,25533.366699,49678.900757,324604.687500
1756,1,-0.034788,-0.207227,0.000000,-130678.890625,-200921.300711,-54019.049003,-153871.212612,-24185.923898,-30813.493661,310889.406250
1757,1,-0.000126,-0.128994,0.000000,5105.108015,-1185873.705357,1810.159511,-4697.672241,124.529749,2986.736836,1237924.500000
1758,1,0.008411,-0.204782,0.000000,8686.270630,-612633.543750,-18051.759440,72593.190951,11689.877865,-41690.595605,505275.375000
1759,1,0.028576,-0.194630,0.000000,-37992.816956,-218998.192419,-80.669238,199696.722656,49474.737642,34.797607,266659.187500
1760,1,0.046612,-0.189160,0.000000,24312.714813,-3778.599121,16266.263214,121943.338867,16340.422592,8736.341309,102285.250000
1761,1,0.064577,-0.183653,0.000000,141757.862514,-5732.417751,36870.604397,65685.559501,-31903.308062,17182.393467,298966.656250
1762,1,0.102649,-0.169039,0.000000,56044.219727,-271040.725000,847.429622,-197872.689583,-10724.418188,24763.025924,501965.593750
1763,1,0.155355,-0.119756,0.000000,-54367.699263,-242645.674361,-1398.847656,-201261.557528,-2836.091886,-11923.071822,221915.812500
1764,1,0.175518,-0.083530,0.000000,-116514.299683,-358442.676758,-21440.291046,-181346.560059,14585.369804,-4968.769592,443847.843750
1765,1,0.189149,-0.048339,0.000000,-62952.206763,-304164.864063,-643.742822,-188768.667187,11084.658339,14026.655286,410377.281250
1766,1,0.208039,0.030627,0.000000,3671.180420,-268670.856250,-609.727173,162727.386719,-1681.155347,-5497.242749,457631.937500
1767,1,0.193622,0.081045,0.000000,-70332.301200,-125791.865583,3535.153634,83858.403181,14220.369428,11365.880096,106082.117188
1768,1,0.175979,0.116156,0.000000,-27638.987598,-163045.096191,-1854.161768,88826.457422,12771.114221,13731.450977,152687.359375
1769,1,0.109398,0.177475,0.000000,-67922.661227,-290171.310096,9643.143198,241923.265625,-2102.725886,1768.759953,468733.468750
1770,1,0.078812,0.195429,0.000000,-289613.955566,-458016.554688,-36220.495605,295096.371094,-13867.326660,-36150.591095,754412.375000
1771,1,0.020870,0.208203,0.000000,-284071.895647,-556850.899554,17557.690866,-179795.488281,2696.265451,63775.593471,683626.625000
1772,1,0.000107,0.128983,0.000000,2651.965581,-1362880.642857,-3186.260001,-6416.606376,-1645.211744,13835.970354,1360987.375000
1773,1,-0.014645,0.204636,0.000000,-188961.267004,-609591.716912,18238.047033,146044.186581,-6049.188268,64289.595330,837065.375000
1774,1,-0.029229,0.191657,0.000000,-86439.092882,-378832.591851,27173.545790,293890.229167,-61856.912543,41005.157878,184077.718750
1775,1,-0.046352,0.189265,0.000000,-56011.534877,-180000.864188,37675.301339,79731.405196,-3960.680769,11500.080776,184077.718750
1776,1,-0.065979,0.183476,0.000000,-2602.487584,-183916.028390,10815.826939,-130813.864955,34319.459856,-3012.529367,466040.750000
1777,1,-0.101509,0.165908,0.000000,-81266.504598,-295409.277344,1349.852254,-249896.535156,25336.489304,16544.689504,535849.125000
1778,1,-0.117152,0.154623,0.000000,-232440.031250,-453005.571615,-57864.556437,-210281.681966,-3186.855570,14815.506999,535849.125000
1779,1,-0.170075,-0.000049,0.000000,384049.614258,-24940.577972,42784.429993,1882.868164,31232.299194,3716.448650,376702.437500
1780,1,-0.088319,-0.000107,0.000000,385067.231771,-3286.714235,-680.507950,-2994.413767,3006.675547,-1707.782354,427601.718750
1781,1,0.088319,0.000107,0.000000,403849.393229,-7529.026760,-1997.733226,8965.352020,2076.214447,2291.505188,371294.937500
1782,1,0.169587,0.000483,0.000000,424578.755208,-14083.980789,41337.992116,9353.164225,-37997.889648,-3459.201497,378222.343750
1783,1,-0.091126,0.091316,0.000000,84239.577026,-105427.103394,1250.901505,6475.975211,974.716560,-1664.155701,140851.437500
1784,1,-0.033632,0.033888,0.000000,8521.100781,-262666.949219,-2412.504687,24727.221680,-25378.000562,12944.361389,169293.093750
1785,1,0.033517,0.033352,0.000000,23971.393206,-236445.684291,-2230.499985,-1713.499791,11557.546160,22212.005301,168988.421875
1786,1,0.120320,-0.119484,0.000000,-36807.785296,-98487.242467,22699.231271,-73215.753069,-15757.820220,43870.519671,233353.937500
1787,1,0.062527,-0.062376,0.000000,37381.010324,-167766.714565,5331.005964,64772.063895,473.113973,-8867.631531,201148.515625
1788,1,-0.033774,-0.033850,0.000000,73579.318624,-188909.805196,20023.336589,34639.035807,-28148.368627,446.988403,349869.687500
1789,1,0.000009,0.047764,0.000000,55779.406413,-1270312.963542,-88494.469076,-41567.007812,-14359.419434,-77578.444377,1256417.750000
1790,1,0.091290,0.091136,0.000000,62284.909302,-127825.772217,509.890339,-27983.957245,3909.032768,-4980.666546,445731.562500
1791,1,-0.000117,-0.047825,0.000000,51471.984375,-1144968.541667,-24657.807780,3.656250,3576.971608,45769.719584,1161709.000000
1792,1,-0.091308,-0.091117,0.000000,30972.500977,-157844.411482,1148.391357,-61689.150391,-1818.419837,10051.335767,420822.687500
1793,1,0.205044,-0.011853,0.000000,95219.044617,-327001.482537,1351.963961,-77241.899745,-15485.656135,3958.019870,474498.218750
1794,1,0.185070,-0.098793,0.000000,-56318.743408,-161408.710205,-5214.797974,-74245.128418,14924.755299,-6642.185760,193231.015625
1795,1,0.115768,-0.156275,0.000000,-36587.583008,-442735.890625,-19703.241755,-188240.205611,76.544422,-2816.661871,807811.687500
1796,1,0.082720,-0.176934,0.000000,84328.981445,-158563.270508,7961.236084,-118489.979004,-40356.474243,46154.276917,298966.656250
1797,1,-0.047221,-0.191276,0.000000,-25835.946181,-28752.075087,15509.127875,-127820.306641,104.371311,11596.673109,187100.687500
1798,1,-0.084858,-0.175037,0.000000,130002.166016,-188038.960938,17132.461667,114972.709717,32042.631714,29037.510620,629951.125000
1799,1,-0.116625,-0.156328,0.000000,-96009.852992,-431829.462054,-33479.692697,158119.917132,8456.093331,-11007.008432,500275.562500
1800,1,-0.165547,-0.102406,0.000000,-134458.297266,-370728.185937,-6590.807715,197223.606641,1351.213266,-18217.563086,393607.843750
1801,1,-0.192059,-0.024738,0.000000,71612.258894,-257829.476562,-8943.589478,152450.536272,19376.481960,26791.559670,437297.750000
1802,1,-0.208653,0.016902,0.000000,39264.899455,-306123.996094,-16406.225810,-106490.469238,15072.008830,-2850.619202,445331.343750
1803,1,-0.202055,0.056719,0.000000,-68672.105469,-158284.567188,-2566.691650,-139900.108594,-4675.595923,4979.262297,207590.703125
1804,1,-0.155843,0.133672,0.000000,-53876.808465,-96001.393760,6264.374229,-144347.787829,-6278.823814,11650.133288,207941.109375
1805,1,-0.084529,0.175340,0.000000,-29634.736572,-210116.828125,19240.358203,-230954.835156,44992.649316,-4045.967725,349889.218750
1806,1,0.046276,0.188643,0.000000,-65898.772369,-162442.408203,40986.786865,-96040.638367,5710.221970,-3538.160950,350600.468750
1807,1,0.086256,0.176636,0.000000,-33047.026042,-317901.220052,14927.218479,244867.984375,-34752.631782,-14903.972073,720476.375000
1808,1,0.118495,0.155896,0.000000,-148570.745051,-370250.720881,-24042.036688,186809.398349,12358.186590,20222.022061,569628.125000
1809,1,0.154782,0.142127,0.000000,-114621.853125,-110459.678601,-2250.524854,130316.788086,8939.504938,-1106.762027,259779.281250
1810,1,0.166778,0.100966,0.000000,-134761.843506,-356415.986328,-25943.038620,194506.375244,2589.200600,22148.549820,356337.437500
1811,1,0.183500,0.065393,0.000000,-100583.997721,-373282.654297,-10572.831787,189576.065104,20588.337941,-11266.741435,678478.875000
1812,1,-0.119632,0.120921,0.000000,-54022.590820,-92575.785400,-4359.028564,-88322.313843,-12660.871582,-40886.143066,72105.578125
1813,1,-0.105518,0.105764,0.000000,46853.311279,-156933.233398,7931.429504,35163.928467,-8875.831299,-9221.129150,529720.750000
1814,1,-0.076765,0.076897,0.000000,84424.707031,-106957.699777,2987.196132,11263.898089,1757.840942,2106.182007,172167.078125
1815,1,-0.062425,0.062478,0.000000,81857.695417,-103498.830287,6161.688407,9369.609183,1437.780692,8106.996401,159049.812500
1816,1,-0.048056,0.048108,0.000000,91236.087402,-97206.650879,21986.292542,11725.702148,-1948.408279,23571.529297,169293.093750
1817,1,-0.166901,0.100523,0.000000,-90251.504883,-320673.190625,-14952.260452,-163453.062891,-18705.010742,14682.804883,191451.296875
1818,1,-0.183951,0.063571,0.000000,-98346.597070,-288054.925000,-12619.537061,-179912.953125,-14608.275739,-2082.860339,403039.625000
1819,1,-0.192269,0.024631,0.000000,98713.780204,-242928.464286,-8288.709813,-156322.028739,10241.639988,-30861.686227,443855.531250
1820,1,-0.047015,-0.000037,0.000000,411823.203125,-162163.812027,41515.339493,-13961.475342,-44095.318390,3303.828156,676586.562500
1821,1,-0.067876,-0.000024,0.000000,362418.958333,16378.529460,12303.294434,1352.201742,-12560.374502,-7665.021800,358507.437500
1822,1,-0.108652,-0.000089,0.000000,394634.695312,-3344.142758,-1160.269863,-3448.244499,1533.741317,-1216.002930,417445.218750
1823,1,-0.128983,-0.000037,0.000000,393777.408482,-5773.054391,248.866250,-3658.632359,2675.839111,511.083248,393924.968750
1824,1,-0.149392,-0.000014,0.000000,399865.250000,-5631.396091,6534.624414,-1471.018723,9904.000244,2926.104378,376702.437500
1825,1,0.000865,0.169993,0.000000,-138522.547256,-1412762.312500,-114613.092425,-17385.529419,7876.511876,99615.175223,1300841.375000
1826,1,0.000162,0.149378,0.000000,10805.620289,-1386734.732143,-9688.496320,-6532.843079,-3750.103412,33781.561663,1355819.500000
1827,1,0.000089,0.108651,0.000000,4389.732239,-1349905.035714,67.438799,-6497.892439,-676.713442,8194.520333,1342981.500000
1828,1,0.000037,0.088319,0.000000,5866.551579,-1342297.866071,-2996.036527,-5946.456107,453.738920,2820.588743,1316578.125000
1829,1,0.000008,0.068001,0.000000,-1598.070297,-1334826.476562,-23938.338875,-784.436714,-491.140976,-22316.086476,1256417.750000
1830,1,-0.101231,0.183784,0.000000,-111584.124198,-249367.822545,8636.998352,-269865.333705,944.613774,-14680.744306,501559.125000
1831,1,-0.133603,0.161614,0.000000,-82315.144455,-158304.383789,8560.502411,-74596.144165,-20360.124557,14580.471308,173313.765625
1832,1,0.033429,-0.033377,0.000000,-8695.682699,-324389.472656,-24021.906616,60997.586344,12611.093911,-12535.083374,239386.500000
1833,1,0.048039,-0.048005,0.000000,48429.927490,-156632.177490,15104.550018,68630.231934,-385.398621,-24178.522888,222929.843750
1834,1,0.076892,-0.076766,0.000000,37349.644741,-170769.703125,755.536325,65931.914062,3420.722307,-1633.159441,225065.109375
1835,1,0.091231,-0.091178,0.000000,58967.780552,-144943.644392,3049.976628,50831.017857,9654.063930,3447.935564,214186.500000
1836,1,0.105650,-0.105502,0.000000,76836.598226,-92259.551107,21198.080872,6832.414062,8785.319499,24748.639119,192423.437500
1837,1,-0.001026,-0.169479,0.000000,-98313.793274,-1165222.042969,-91940.445824,279.490700,-2710.645783,-58580.208557,962688.125000
1838,1,-0.000192,-0.149294,0.000000,7408.470197,-1185927.303571,-4883.329869,-2708.887041,1117.655690,-8470.841533,1162751.750000
1839,1,-0.000092,-0.108653,0.000000,4946.864450,-1188963.241071,3864.791536,-4521.504290,-227.811410,1588.524235,1172184.625000
1840,1,-0.000037,-0.088319,0.000000,3459.784076,-1185669.375000,666.225342,-4610.046524,-2976.817627,1956.461777,1179815.625000
1841,1,-0.000026,-0.068011,0.000000,8741.937948,-1161884.562500,-1454.671611,922.771423,-5310.755152,11307.729914,1199206.250000
1842,1,0.059816,-0.201261,0.000000,-134162.592163,-154473.946045,-56862.292900,24863.842987,2941.033104,-10559.897820,350505.343750
1843,1,0.135218,-0.153573,0.000000,-142019.902945,-234911.049579,6058.264536,-62784.124061,23761.500056,-1274.998222,277972.468750
1844,1,0.047833,0.000020,0.000000,437061.580729,-190309.821960,30782.345505,-3633.491211,62219.523885,6750.341207,760857.687500
1845,1,0.068013,0.000021,0.000000,404632.825893,3666.254755,17627.010712,11132.027640,14037.102819,3861.258187,388174.625000
1846,1,0.108652,0.000089,0.000000,415730.930804,-1932.549595,-1305.817426,6265.217616,-1774.095049,653.784188,411629.218750
1847,1,0.128983,0.000037,0.000000,414223.316964,-4499.830078,-1044.578840,7329.187840,-2752.526960,-799.365661,402057.937500
1848,1,0.149310,0.000087,0.000000,415099.410156,-5077.130348,8098.269257,6463.821404,-8071.233307,-2952.453219,440204.593750
1849,1,0.166600,-0.100892,0.000000,-124216.975098,-388756.614258,-22681.591064,-186725.622559,6712.322357,-16263.633545,443847.843750
1850,1,0.183015,-0.066182,0.000000,-105648.952344,-345749.831250,-9611.662598,-184812.296094,21292.325488,5383.910779,410377.281250
1851,1,0.194765,-0.030586,0.000000,6290.961650,-275281.790625,-999.494116,-184516.787500,1227.106421,20942.179736,426646.781250
1852,1,0.120069,0.120145,0.000000,-34155.408203,-205671.388672,6280.386068,100216.070964,-3183.571574,-21219.477376,276583.250000
1853,1,0.105618,0.105605,0.000000,110184.382115,-101757.063058,32152.933053,-5256.994803,1074.170794,-26967.865880,533236.062500
1854,1,0.076892,0.076767,0.000000,65630.006138,-127476.480469,-3388.648010,-28672.646885,1211.911508,4761.179879,176112.156250
1855,1,0.062477,0.062425,0.000000,63314.714704,-128151.462769,5471.691903,-27754.236328,-1008.672998,15136.368168,207836.328125
1856,1,0.048046,0.048009,0.000000,-3879.577734,-168838.989453,-1275.992285,-81517.901563,-7663.524890,40521.790039,207836.328125
1857,1,0.065336,0.183560,0.000000,46426.169037,-209453.868042,28870.843674,64614.075058,-35260.754669,-14156.600311,282223.406250
1858,1,-0.120622,-0.119494,0.000000,-55938.926409,-190955.890485,-55.934989,59926.501674,-518.099457,34602.935686,247330.500000
1859,1,-0.105713,-0.105493,0.000000,38855.211217,-133059.433036,15725.327985,-64275.775391,-1754.018825,27373.753488,191530.953125
1860,1,-0.076895,-0.076763,0.000000,31222.398647,-163295.733259,-1108.719228,-64522.547154,1730.250171,1361.521685,203452.312500
1861,1,-0.062478,-0.062425,0.000000,28231.777390,-161013.317941,-667.057032,-64879.968750,5767.693987,-6141.035444,213288.531250
1862,1,-0.048088,-0.048092,0.000000,24617.940241,-156837.393066,5927.285309,-60460.479248,5532.234930,-17859.411373,175910.765625
1863,1,-0.101403,-0.166203,0.000000,76895.953753,-284056.797433,30131.324149,213415.715402,21978.242161,-2239.141044,500275.562500
1864,1,0.191842,0.044899,0.000000,-58819.951931,-278670.996528,-4375.635634,181162.560764,11392.159017,-9804.235948,457631.937500
1865,1,0.175808,0.083491,0.000000,-113593.146973,-363728.317057,-5855.496908,188252.311198,13559.870860,6850.250142,436476.843750
1866,1,0.155464,0.120529,0.000000,-70655.414941,-220636.534896,-10010.022396,225352.189583,-8845.934912,9775.202899,268168.843750
1867,1,-0.188893,-0.044604,0.000000,-65790.434326,-280888.013672,-8494.390373,182108.898438,-14111.448662,19775.133179,345964.937500
1868,1,-0.178102,-0.084649,0.000000,-106571.749721,-298693.665179,-11069.571341,156624.660249,-15051.968988,-10397.677563,393607.843750
1869,1,0.207788,0.010706,0.000000,70805.558245,-348988.314732,-5537.051339,76306.393920,-14756.871216,-6432.324006,428979.437500
1870,1,0.201297,0.062745,0.000000,-69959.282878,-173703.093831,10604.997599,128064.922526,16735.115570,-484.525635,268384.812500
1871,1,0.185304,0.098857,0.000000,-44948.016113,-116820.497396,2289.933797,56925.431966,12657.385620,4930.814992,162178.671875
1872,1,0.139541,0.156822,0.000000,-112707.623682,-134284.551953,16578.185303,79308.941992,32789.335156,38905.831348,259779.281250
1873,1,0.059821,0.201105,0.000000,-410134.875000,-448372.268750,-18775.575000,69665.606177,-2520.568945,10422.404004,508149.937500
1874,1,0.040541,0.205489,0.000000,-497564.709375,-473242.812500,3047.019849,-82634.681323,-4997.065625,36883.783105,604791.937500
1875,1,0.004248,0.211380,0.000000,-181101.883523,-674508.971591,21344.240767,-44220.014560,-3573.472989,67830.618164,633096.062500
1876,1,-0.117967,0.173296,0.000000,-57347.110672,-225879.033203,4294.234385,-162365.268880,-9007.710322,3853.308355,230891.640625
1877,1,-0.147621,0.151653,0.000000,-89845.247125,-39384.474365,7445.874457,-63899.727865,-17114.715332,1901.190620,173313.765625
1878,1,-0.206209,0.037067,0.000000,-18354.770288,-203876.737500,-6750.611963,-149707.255469,3414.969592,1486.124651,443855.531250
1879,1,-0.212303,-0.000100,0.000000,74800.740403,-356289.644231,-13596.777475,15462.009334,5013.759932,-1527.431893,358701.281250
1880,1,-0.208855,-0.017030,0.000000,56688.338184,-306912.773438,-11094.644287,105927.605469,20897.147803,2248.624456,358701.281250
1881,1,-0.201878,-0.056592,0.000000,-73089.548598,-178990.096680,945.553992,133764.458984,-6678.709683,-2944.086631,345964.937500
1882,1,-0.158816,-0.135671,0.000000,-51676.968811,-122503.207520,3004.659790,131792.412598,-6800.034332,5434.493706,277527.187500
1883,1,-0.132807,-0.163008,0.000000,-40715.787170,-218749.170898,10529.756012,68813.636841,-17238.208862,1772.234146,415327.125000
1884,1,-0.101368,-0.183665,0.000000,-123355.711217,-276927.907366,-7423.221889,296651.530134,-18018.966867,39648.200963,483246.437500
1885,1,-0.014600,-0.207298,0.000000,-53839.469325,-500744.508929,-78805.829485,-109426.868931,-18351.338100,-71506.897252,447468.750000
1886,1,0.041677,-0.206528,0.000000,-144972.278181,-176457.001325,-55455.448591,119146.052176,18383.708391,-22283.692514,149171.109375
1887,1,0.078245,-0.195076,0.000000,-211231.055339,-262227.636068,-87096.997728,-195939.798720,-16740.771159,21365.972968,298966.656250
1888,1,0.154190,-0.140837,0.000000,-96139.355820,-102383.325653,5583.755463,-128777.309570,17770.038483,8658.119237,277972.468750
1889,1,0.175740,-0.116103,0.000000,-34816.254608,-166967.460144,5736.500832,-72872.078857,8306.566011,-7890.275345,157906.921875
1890,1,0.193483,-0.081183,0.000000,-57475.212321,-112111.702718,3861.144165,-94343.713704,17821.416504,-7046.504354,208719.640625
1891,1,0.200434,-0.063040,0.000000,-61319.760796,-163449.974284,6336.886230,-121608.562174,9262.966614,-2020.115139,208719.640625
1892,1,0.017754,0.017618,0.000000,206617.815972,-595272.618056,3063.290799,61227.182183,5814.633681,17998.579319,943272.562500
1893,1,-0.018867,-0.020859,0.000000,158851.868490,-516929.449653,-9137.433133,25804.510091,-21847.674400,-247.645073,645390.437500
1894,1,-0.018780,0.020677,0.000000,175308.397461,-531655.220703,-1450.111694,-100457.154663,-38165.972763,-28154.646004,922029.687500
1895,1,-0.000580,0.028371,0.000000,289451.644531,-766936.691406,-15217.278076,-2933.369385,-10802.325714,-34649.194702,1241101.875000
1896,1,-0.000621,-0.028512,0.000000,222407.163574,-742900.322266,16809.098328,5916.970230,-4381.521004,18740.947594,730081.687500
1897,1,-0.172470,0.118472,0.000000,-33450.087285,-188888.776172,3997.904248,-81903.224219,-15230.913672,15203.070752,329738.781250
1898,1,-0.192983,-0.000048,0.000000,179997.452352,-235162.610677,10874.849548,3067.972982,32300.648682,918.974201,373779.812500
1899,1,0.189070,0.003672,0.000000,253091.093192,-207403.063058,8201.577000,25148.992606,-30488.589996,-2804.865513,363572.312500
1900,1,0.136566,-0.131327,0.000000,-165693.366629,-122233.917132,-645.062919,-214046.288504,7529.296596,30172.504987,455634.906250
1901,1,-0.084023,-0.192361,0.000000,-76946.487695,-240442.059766,-14151.923633,219711.247266,12902.970374,96247.931885,629951.125000
1902,1,-0.184173,-0.063689,0.000000,-100106.793620,-359240.942708,-11152.961838,185252.080729,-15707.161825,10166.299235,419678.312500
1903,1,0.134666,0.135690,0.000000,-213872.177632,-157395.361842,-7730.758995,201345.691972,10514.904457,10761.192413,259779.281250
1904,1,-0.005431,-0.188828,0.000000,5865.119751,-733469.460938,-27474.993042,-72202.767212,-11384.053085,-47642.982239,788667.125000
1905,1,-0.137640,-0.132176,0.000000,-136952.198702,-132433.690430,5659.358987,201816.388787,-11797.202953,4586.382798,388032.437500
1906,1,-0.132595,0.139542,0.000000,-232159.034926,-157414.377298,-18591.203585,-171581.576976,-31006.371726,-4264.927441,538443.562500
1907,1,0.096376,-0.187977,0.000000,-123376.772135,-194557.934896,-30065.081055,-254596.544271,758.515625,34900.825846,430668.468750
1908,1,0.095411,0.190752,0.000000,-218289.226562,-311288.182292,7582.254639,330205.452083,-379.166597,-11598.362923,615076.125000
1909,1,0.206068,-0.045080,0.000000,-34244.794172,-180715.626674,5557.982422,-146120.862165,4830.311620,-7232.880772,281536.250000
1910,1,-0.195713,0.076544,0.000000,-56945.845947,-114999.467773,1511.186951,-90097.802490,-7461.933823,11101.903488,154049.671875
1911,1,0.005455,0.192234,0.000000,-141434.387760,-854125.064583,-52711.154036,-89197.658724,12809.122005,77727.752474,837065.375000
1912,1,0.168289,-0.131048,0.000000,-22436.883523,-123185.721946,7809.165538,-78078.944602,9957.415616,-1668.823697,221915.812500
1913,1,-0.051432,-0.207451,0.000000,-129274.529748,-85059.650766,-34603.280349,-76533.794321,-3365.827383,-26418.026151,187100.687500
1914,1,0.025715,-0.211064,0.000000,-104887.821965,-385012.826923,-79799.496094,118887.891226,22753.934213,-58463.424579,505275.375000
1915,1,0.122714,-0.170619,0.000000,-22883.789806,-219070.267299,4958.591291,-135645.838449,12877.922743,6063.376199,361271.562500
1916,1,0.168477,0.131471,0.000000,-13366.401646,-124200.338030,-803.163504,91619.238979,7248.630336,8628.385851,268168.843750
1917,1,-0.036749,0.205934,0.000000,-364999.805804,-443739.968192,22681.520700,100101.248954,2806.139840,31395.788644,629106.875000
1918,1,0.208460,0.047498,0.000000,-49605.044522,-209931.485795,7370.174893,152871.946023,9218.341863,-1203.833230,350624.593750
1919,1,-0.082796,0.193115,0.000000,-284752.803013,-280071.322545,-18525.690107,-290305.146205,3642.751526,-37128.478132,501559.125000
1920,1,-0.193201,-0.091667,0.000000,-29217.408358,-65282.345969,12407.613137,34640.551314,-12138.885254,-8585.078103,166344.421875
1921,1,-0.183061,-0.104669,0.000000,-48292.141113,-154823.273438,9293.776611,67395.037109,-14075.876270,-12379.454653,379162.406250
1922,1,-0.187195,0.099272,0.000000,-56651.318004,-117755.704812,8041.001695,-56489.610164,-14848.478489,7042.888539,154049.671875
1923,1,-0.060564,0.203013,0.000000,-446344.353365,-423817.319111,-18643.589168,-150252.886013,21129.816707,6399.616211,580179.750000
1924,1,0.017680,-0.017860,0.000000,209858.362571,-570268.169034,-3506.693271,-20361.039862,15581.276156,-1635.458307,797358.312500
1925,1,-0.023489,-0.000127,0.000000,244351.129616,-554679.644886,-30220.438432,-28142.995827,-14725.720481,-993.352362,698819.562500
1926,1,0.028350,-0.000068,0.000000,259733.221094,-546001.434375,-8244.969922,3818.211865,22642.799512,8203.886011,760857.687500
1927,1,0.127606,0.170485,0.000000,-51325.006278,-251350.888393,14326.716287,118145.485910,3690.481445,10365.314802,219728.812500
1928,1,0.111852,-0.182473,0.000000,-74107.921875,-208373.359375,-15967.263114,-246162.497768,14891.678153,36177.711635,361271.562500
1929,1,0.192312,0.023203,0.000000,84133.770915,-279816.252604,-13260.427266,176877.819987,-17723.222249,-36994.108988,592816.375000
1930,1,-0.067179,-0.183049,0.000000,83475.604004,-89116.430870,12513.865055,-62788.673523,29330.531643,35137.653721,196194.875000
1931,1,-0.025225,-0.191960,0.000000,-11785.880232,-316060.567801,25685.255371,-223885.078125,-54304.063651,-8623.359096,830138.375000
1932,1,-0.153504,-0.118043,0.000000,-64704.968262,-288973.549479,-4138.346558,234549.790365,17539.564026,-14879.614197,539268.500000
1933,1,0.100271,0.163622,0.000000,-50432.512639,-318195.747596,4643.042316,246533.442308,-35265.510216,25033.739399,575074.187500
1934,1,-0.002647,-0.009721,0.000000,266954.845052,-659300.145833,-7645.800049,10484.301290,-2428.489390,-3153.827532,797358.312500
1935,1,-0.002644,0.009439,0.000000,284485.493490,-684556.953125,-2298.602051,-3098.601156,333.876241,-9895.414538,922029.687500
1936,1,0.210809,-0.029473,0.000000,3280.342454,-277613.581731,1683.348755,-141306.405649,-7202.314998,-5387.217135,382283.187500
1937,1,0.011699,-0.000118,0.000000,292700.727431,-614070.715278,7868.407552,19662.693142,8700.918959,6235.839752,797358.312500
1938,1,-0.129862,-0.147958,0.000000,-150865.964844,-272550.001563,-8771.381982,79573.175391,-32115.451172,342.218359,452935.312500
1939,1,0.027076,0.191950,0.000000,-149627.118978,-313209.541667,4505.180593,-278756.632812,55093.645182,28216.441813,604791.937500
1940,1,0.149265,0.101481,0.115317,-148441.710693,-475027.871094,-67712.013145,288414.810547,14894.969009,-25793.334900,448861.687500
1941,1,0.149265,0.101481,0.096098,-179098.598958,-513614.153646,-100113.229329,294433.179688,12776.546733,-14442.871714,751883.437500
1942,1,0.149265,0.101481,0.076878,-168893.483259,-496241.756696,-104859.056362,275148.525670,3765.227007,-5414.336199,750648.937500
1943,1,0.149265,0.101481,0.057659,-181986.007812,-493107.190104,-106431.443522,297557.542969,-1401.175557,191.853170,426010.875000
1944,1,0.149265,0.101481,0.038439,-174516.988932,-493190.630208,-94064.492594,298038.117188,-10438.419001,19594.690918,764085.187500
1945,1,0.149265,0.101481,0.019220,-183953.554688,-510383.429688,-77433.578064,297073.569010,-16197.779867,27890.604492,419261.687500
1946,1,0.158839,0.085724,0.115317,-170292.589355,-515403.203125,-54360.606506,249218.618164,-4025.016998,-7157.999077,776290.125000
1947,1,0.158839,0.085724,0.096098,-185400.985677,-554450.007812,-99898.583659,270434.783854,1717.563385,-2766.773519,708973.875000
1948,1,0.158839,0.085724,0.076878,-163866.494420,-508654.495536,-93630.535575,253150.910714,-3775.436157,-2566.136954,660420.187500
1949,1,0.158839,0.085724,0.057659,-173944.607910,-536921.027344,-103015.204508,262659.885417,1166.197667,-4982.713013,660329.250000
1950,1,0.158839,0.085724,0.038439,-202911.876302,-543003.140625,-103473.507812,268587.186198,-154.819814,17196.884492,445757.906250
1951,1,0.158839,0.085724,0.019220,-178615.625000,-519928.801339,-68682.665946,258280.401786,715.767622,5939.763589,729234.000000
1952,1,0.166756,0.069073,0.115317,-136345.497489,-542470.981027,-59720.992153,238421.602679,-10196.359061,9446.485997,683312.187500
1953,1,0.166756,0.069073,0.096098,-134898.285156,-553428.992188,-80413.038818,239527.980469,-7166.736351,6614.345830,683537.062500
1954,1,0.166756,0.069073,0.076878,-143460.738932,-537155.757812,-93001.731364,242019.932292,769.424169,-777.583796,427541.906250
1955,1,0.166756,0.069073,0.057659,-153661.460286,-533281.192708,-102637.225911,232563.434896,1941.772845,-818.952835,660329.250000
1956,1,0.166756,0.069073,0.038439,-150379.781250,-545695.072917,-86669.754801,235292.348958,3069.551234,-1172.419464,716328.375000
1957,1,0.166756,0.069073,0.019220,-131597.788940,-496405.779297,-51408.374146,228998.858887,10853.880798,-10552.415581,678478.875000
1958,1,0.172933,0.051700,0.115317,-81829.771159,-482744.680990,-43457.601985,202470.480469,-9628.252655,26300.777425,683312.187500
1959,1,0.172933,0.051700,0.096098,-88016.347005,-505707.890625,-66766.620687,196004.341146,-5956.263232,19799.236410,683537.062500
1960,1,0.172933,0.051700,0.076878,-98916.161784,-507967.322917,-88451.679525,199340.713542,-6069.599386,5754.669764,400220.656250
1961,1,0.172933,0.051700,0.057659,-95111.500326,-505261.234375,-90859.746745,197417.061198,929.202070,-2373.544174,658025.250000
1962,1,0.172933,0.051700,0.038439,-87752.999349,-498713.335938,-75874.598470,196322.100260,8877.594452,-13971.219594,538563.500000
1963,1,0.172933,0.051700,0.019220,-105045.682617,-473900.805804,-51851.683594,212536.052455,12785.435451,-23885.383955,678478.875000
1964,1,0.177305,0.033788,0.115317,-41395.763102,-364675.132812,-40151.849935,184965.540365,-4703.924627,47001.376628,441848.968750
1965,1,0.177305,0.033788,0.096098,-28198.955404,-362828.378906,-48500.051514,176397.520833,-1930.703344,30830.236979,554739.937500
1966,1,0.177305,0.033788,0.076878,-22702.706441,-365982.515625,-55182.696493,175718.173177,-3797.065241,8910.180354,426910.312500
1967,1,0.177305,0.033788,0.057659,-25569.300944,-375996.695312,-57756.783691,176480.626302,-217.039154,-9644.989955,531390.375000
1968,1,0.177305,0.033788,0.038439,-10222.186686,-369113.289062,-49510.367676,186621.252604,-1019.032796,-27232.633504,531390.375000
1969,1,0.177305,0.033788,0.019220,3686.993164,-341169.220703,-27548.665136,195447.484375,-2212.746627,-41422.884277,592816.375000
1970,1,-0.116502,0.156357,0.134537,-191792.920247,-423689.717448,-35308.993271,-232802.640299,-12597.457255,-40686.275368,389060.625000
1971,1,-0.117627,0.174019,0.134537,-40254.478899,-251320.729911,6772.978058,-170971.862723,6917.568845,-11368.546794,531902.562500
1972,1,-0.082224,0.178388,0.134537,-30281.207482,-259244.439002,8873.744028,-244388.387620,-29644.227070,11981.838989,747206.000000
1973,1,-0.068301,0.196885,0.134537,-296646.544034,-390361.495739,-17985.032937,-183303.582386,-23004.618253,4371.773493,448766.875000
1974,1,-0.047406,0.190482,0.134537,-37502.362981,-154461.030574,24831.507174,63011.116286,14393.147423,3964.270616,205427.937500
1975,1,-0.035243,0.206585,0.134537,-400533.520996,-418202.162109,-16547.433731,152070.607544,-12237.260307,-41959.245453,461160.062500
1976,1,0.000538,0.169542,0.134537,-127260.144060,-1426380.455357,-92734.854388,-13570.440918,314.615162,-100565.589844,1373189.750000
1977,1,0.007986,0.208521,0.134537,-167931.382254,-610807.060268,25887.641497,-85354.372070,-5419.459610,-63859.768415,428010.937500
1978,1,0.024501,0.194585,0.134537,-188326.203275,-566561.169471,14137.251164,-276193.029447,-44131.384615,-36483.956731,880814.000000
1979,1,0.059521,0.201153,0.134537,-471266.017857,-445794.285714,-23810.572440,117465.041085,16714.983756,-1940.532506,708464.375000
1980,1,0.077906,0.194391,0.134537,-347989.039464,-416907.474330,-31877.247611,293568.511161,2532.921849,-604.387905,771881.875000
1981,1,0.112651,0.177217,0.134537,-70265.549520,-280891.871094,9444.869339,230917.670573,-4168.536540,2072.919230,399670.406250
1982,1,0.158601,0.116943,0.134537,-51808.547538,-291982.250000,-12245.840807,215609.501674,12118.593427,-33632.456403,226820.593750
1983,1,0.175616,0.083468,0.134537,-114892.546875,-382076.927455,-10739.557530,194259.939174,-16064.425328,-645.804600,435216.312500
1984,1,0.189150,0.047562,0.134537,-81717.790283,-309749.883789,-22346.012878,184279.750000,-19138.534904,19523.256317,284096.437500
1985,1,0.208521,-0.030510,0.134537,-8349.009293,-278852.048828,-9393.501099,-149212.668945,-7470.790344,-5726.763306,362763.531250
1986,1,0.193719,-0.081017,0.134537,-64781.995004,-129737.168806,11751.219036,-74114.271554,-9916.799707,14915.371233,173451.265625
1987,1,0.175886,-0.116100,0.134537,-24692.566650,-159950.765276,2217.953535,-73481.152623,-8996.888343,5014.063058,187962.312500
1988,1,0.108704,-0.178097,0.134537,23039.132520,-271654.902083,-5418.598291,-211975.053125,-1373.011914,-36029.666764,564058.312500
1989,1,0.078812,-0.195429,0.134537,-226815.090576,-271848.376587,-19379.613281,-184744.715332,32084.279724,-28278.938232,398376.375000
1990,1,0.020831,-0.208203,0.134537,-87838.618164,-374331.803571,-71058.276071,137825.306920,-22166.559291,50122.188267,262455.468750
1991,1,0.000792,-0.169993,0.134537,-76577.205139,-1121312.421875,-75488.173813,-4140.096252,-3183.904739,51478.703293,1225534.125000
1992,1,-0.014675,-0.204636,0.134537,-15903.398817,-520942.493056,-15840.642002,-134658.998264,19862.892944,39654.424723,746397.375000
1993,1,-0.029237,-0.191657,0.134537,-20571.705208,-312171.384049,20064.253975,-235444.226562,66497.552702,7321.572705,624692.437500
1994,1,-0.046355,-0.189265,0.134537,7416.774609,-33324.197070,24895.545068,-118267.911523,9022.159351,-19950.182568,433558.437500
1995,1,-0.065980,-0.183476,0.134537,125326.482422,-111662.583496,32866.510986,-24236.674431,-25552.618561,-40605.888695,269278.187500
1996,1,-0.101537,-0.165605,0.134537,87001.139439,-277561.438616,29535.352260,211354.489397,-21783.107274,-8662.154708,366890.687500
1997,1,-0.153319,-0.118813,0.134537,-63631.661438,-264310.395203,-17243.794373,236979.819336,-7231.802147,11278.975464,338535.375000
1998,1,-0.176666,-0.082775,0.134537,-106980.232422,-317852.107422,-7523.051765,160706.671875,24670.505463,4463.967194,402814.375000
1999,1,-0.189390,-0.044731,0.134537,-54834.429269,-269592.395089,-18284.947222,166867.940848,12679.799416,-14066.121259,342575.312500
2000,1,-0.205463,0.038171,0.134537,-25273.601004,-225938.665179,-7597.069589,-138726.194754,4639.947056,2386.460990,273171.125000
2001,1,-0.196480,0.075570,0.134537,-58271.149414,-102952.435938,11206.157703,-83522.959656,21589.363525,-12378.102234,263749.312500
2002,1,-0.171625,0.120341,0.134537,-26426.231628,-151217.685600,2391.880753,-93666.396179,-1178.081795,-11314.320038,221455.156250
2003,1,-0.146041,0.150129,0.134537,-112090.012370,-68958.221436,-2950.749674,-103509.921549,18179.071818,-14350.736816,369653.343750
2004,1,0.000107,0.088319,0.134537,5766.997990,-1325794.633929,-481.290492,-952.530874,407.229720,-5257.196463,1303408.250000
2005,1,0.033850,0.033774,0.134537,64100.839252,-189663.081597,25997.813687,42984.633789,-27495.596715,-10489.259983,729413.500000
2006,1,0.091131,0.091295,0.134537,101173.608724,-120110.557780,-2052.237142,4568.841593,-5399.623468,7742.833008,345633.593750
2007,1,0.120309,-0.119537,0.134537,-47236.712298,-212627.109375,15933.542132,-59254.849888,9998.532575,-38630.744176,884656.750000
2008,1,0.062376,-0.062527,0.134537,3671.255900,-185688.071615,-1844.618429,89084.759521,2649.134267,9171.858902,230996.359375
2009,1,-0.047834,-0.000151,0.134537,427223.441964,-171923.315499,46234.865208,925.258761,56947.386021,-1851.277300,697826.000000
2010,1,-0.129003,-0.000126,0.134537,399411.183036,-3613.607771,9.027030,-3811.502598,-1046.443109,637.377520,385580.000000
2011,1,0.128994,0.000106,0.134537,404219.552083,-5005.057927,-3417.131454,2281.752322,-3183.648037,1105.333563,412099.718750
2012,1,0.047825,0.000117,0.134537,449350.526042,-196268.302612,63121.706781,4614.418945,-61775.832194,-2898.955538,633342.125000
2013,1,-0.091308,0.091117,0.134537,65463.397321,-105989.016183,1386.631967,17898.319127,2665.965437,9020.145595,162480.609375
2014,1,-0.033890,0.033545,0.134537,72869.715929,-242349.002604,20174.737142,-47308.009223,27441.454305,-16031.534125,874540.625000
2015,1,-0.000107,-0.088319,0.134537,3860.383737,-1188453.285714,-704.889474,-1418.471051,-1931.288862,-2989.660478,1170177.125000
2016,1,-0.062527,-0.062376,0.134537,44340.609794,-158599.315848,3927.213728,-56158.593192,-3934.486588,6819.647792,246910.843750
2017,1,-0.120189,-0.120324,0.134537,-93432.111003,-135143.406250,22432.124349,73085.560547,-1494.329834,-18781.435221,172149.750000
2018,1,0.209923,0.011036,0.134537,58250.000209,-359494.917411,-9702.956892,53218.893668,10691.700065,2685.791640,517560.531250
2019,1,0.185298,0.098648,0.134537,-51101.531494,-180380.194336,1920.946838,86095.361816,-15548.315105,-10877.413879,236993.625000
2020,1,0.138012,0.156445,0.134537,-107206.034054,-106803.791893,13768.140869,69667.625488,-19550.866730,-15620.061272,103210.148438
2021,1,0.095587,0.186368,0.134537,-166418.160993,-264836.915179,-1700.342394,307197.666295,-5094.063468,13745.471331,665920.500000
2022,1,-0.165547,0.102406,0.134537,-111433.164388,-355999.062500,-16323.182780,-186317.582682,6857.056341,-16362.728732,439053.250000
2023,1,-0.191270,0.029952,0.134537,63586.762723,-241239.590909,-20116.920647,-171435.931108,-738.072188,33714.262129,391302.093750
2024,1,-0.209042,-0.017965,0.134537,30837.336719,-307115.384375,-7411.057373,111266.615625,-12990.574622,-5580.117114,392966.125000
2025,1,-0.202132,-0.056795,0.134537,-62717.624349,-149378.606934,-868.992391,121261.968750,6374.086192,7112.208903,415992.593750
2026,1,-0.158817,-0.136686,0.134537,-60862.697021,-113755.535360,3706.337667,99461.249837,9299.135389,2874.794617,338535.375000
2027,1,-0.117706,-0.153709,0.134537,-125554.248535,-430980.592969,-23617.371289,153868.018750,9333.940039,9214.023388,492769.656250
2028,1,-0.084534,-0.175290,0.134537,200302.094177,-192424.976283,33835.155483,88569.628427,-33895.124268,-55688.468366,342191.843750
2029,1,0.046269,-0.188643,0.134537,59686.852214,36221.901286,37325.523600,102225.362956,-32886.441205,-8793.939463,172474.656250
2030,1,0.086075,-0.176823,0.134537,125273.748347,-195879.109525,9724.020132,-95207.020959,40371.165264,-59914.077449,463056.062500
2031,1,0.114637,-0.159145,0.134537,7854.780164,-367185.560937,-8491.161816,-158566.897070,-10748.802246,5739.563257,439934.281250
2032,1,0.154280,-0.141032,0.134537,-60746.399763,-120492.219727,5591.394858,-124787.903739,-17548.829577,-8473.823948,191909.031250
2033,1,0.166696,-0.100916,0.134537,-112543.690569,-358181.279018,-8972.470154,-193215.159319,-3443.019632,17446.440691,472467.593750
2034,1,0.183702,-0.065349,0.134537,-97444.184152,-356432.017299,-820.830647,-181359.603237,-11031.544028,567.109515,472195.718750
2035,1,-0.120622,0.119494,0.134537,-23335.127372,-158408.548270,17591.109584,-110162.029018,-11564.258549,32953.915615,340206.781250
2036,1,-0.105713,0.105493,0.134537,71627.273438,-82271.492606,18174.433524,21167.258301,681.645682,26195.668039,169831.625000
2037,1,-0.076895,0.076763,0.134537,66362.156738,-110419.915283,-260.366836,18787.360992,866.285894,-236.152378,162480.609375
2038,1,-0.062478,0.062425,0.134537,35526.498535,-127361.417480,-2626.021790,38173.372314,584.995073,-12232.380086,156436.390625
2039,1,-0.048108,0.048041,0.134537,45258.068359,-84822.945312,3434.222982,34965.457031,-4225.097239,-17394.241119,156436.390625
2040,1,-0.100806,0.166901,0.134537,-56370.123047,-265970.879464,3302.873710,-249969.574777,-30150.409862,-22559.304007,453395.562500
2041,1,0.000036,0.046929,0.134537,52079.923584,-1298787.300781,-89793.499146,4154.030579,2329.763367,72425.516998,1237830.125000
2042,1,0.000024,0.067862,0.134537,-569.478882,-1325948.410714,-15880.787301,-4454.927677,3792.984532,14962.908704,1258376.625000
2043,1,0.000089,0.108652,0.134537,4519.862688,-1334893.767857,410.338593,-72.132510,-325.693635,-9532.904236,1327245.625000
2044,1,0.000037,0.128983,0.134537,3013.566214,-1350031.991071,-3299.301928,251.003910,-936.438376,-15424.501709,1327245.625000
2045,1,0.000096,0.149303,0.134537,11486.317479,-1376434.678571,-8805.662144,-649.936148,-2212.755307,-33709.244001,1413047.000000
2046,1,0.033183,-0.033217,0.134537,98294.282129,-202980.175781,38313.839648,-88046.175195,-30466.827966,22076.323340,687021.250000
2047,1,0.047973,-0.048004,0.134537,23717.231310,-158614.521050,7824.999729,76349.085503,6330.334459,17047.130863,278948.562500
2048,1,0.076766,-0.076892,0.134537,31008.443290,-165882.041295,2927.814863,68955.501395,580.246460,974.298785,198138.968750
2049,1,0.091178,-0.091231,0.134537,2923.356120,-185136.319010,4087.779551,86143.102539,1862.126719,-16109.591069,249197.125000
2050,1,0.105639,-0.105520,0.134537,36118.358747,-142733.756696,21339.200858,69901.539621,820.180097,-30411.622192,223281.312500
2051,1,0.169890,0.000251,0.134537,427998.812500,-30657.755205,39110.213274,1279.873234,36067.031180,-884.016131,441374.968750
2052,1,0.149363,0.000060,0.134537,416463.328125,1097.576869,6989.343419,529.118210,6859.348275,-2158.298176,429734.406250
2053,1,0.108653,0.000089,0.134537,404085.388021,-4400.254588,-3626.180517,2296.885620,2585.805825,-1769.591718,401605.343750
2054,1,0.088319,0.000037,0.134537,414477.890625,-951.258397,2870.180472,775.253130,-1109.464321,1436.670967,389100.000000
2055,1,0.068011,0.000026,0.134537,410397.244792,2448.866496,18234.359253,266.699351,-24808.702067,2069.232091,409227.937500
2056,1,0.155590,-0.119797,0.134537,-57084.564650,-221807.290865,2553.442477,-200080.488582,2167.406168,8045.723304,577088.250000
2057,1,0.175844,-0.083471,0.134537,-105946.157552,-352833.710938,-1670.523097,-172760.719401,-10374.063059,6094.886271,433227.718750
2058,1,0.192168,-0.044745,0.134537,-65877.672974,-279798.213542,-6832.206407,-168901.381076,-10476.155599,-8812.831238,362763.531250
2059,1,-0.170117,-0.000726,0.134537,385556.958008,-41312.707504,41287.937089,877.484207,-35486.501953,-2975.101911,333552.375000
2060,1,-0.149402,-0.000142,0.134537,397460.955729,-2664.597967,8948.289164,-4875.882884,-11228.389949,1928.554448,377503.593750
2061,1,-0.108655,-0.000092,0.134537,397943.294643,-3387.973894,-1514.957005,-3853.155936,-1526.251376,-310.508457,385580.000000
2062,1,-0.088320,-0.000037,0.134537,390178.065104,-5651.802470,118.048248,-4606.774577,1814.544106,-1911.789358,382267.250000
2063,1,-0.068013,-0.000031,0.134537,398967.147321,10308.218096,21998.970415,-5746.561245,18015.194118,-3725.356812,377922.437500
2064,1,-0.178106,0.084679,0.134537,-96006.377068,-325107.843290,-12180.362793,-167932.309053,22605.189568,-5090.635119,685442.250000
2065,1,-0.188698,0.045682,0.134537,-65782.152623,-294915.643973,-21482.263571,-172925.877790,15212.807617,22203.693595,370933.125000
2066,1,0.065305,-0.183591,0.134537,86225.960751,-64064.257080,34246.232666,22272.121826,34260.457640,-27237.409485,208933.937500
2067,1,-0.000366,-0.047594,0.134537,35026.348928,-1191592.963542,-84631.598592,7858.998779,10319.496151,-54089.460449,1193846.000000
2068,1,-0.000079,-0.067973,0.134537,5832.334403,-1192524.991071,-13278.329102,-4589.875205,-3238.305272,-21717.398472,1166957.375000
2069,1,-0.000089,-0.108652,0.134537,4652.485822,-1185249.767857,2902.821341,-298.110184,-347.546679,-2034.498954,1170177.125000
2070,1,-0.000037,-0.128983,0.134537,4808.644008,-1181132.375000,1432.753828,-148.085861,-167.650757,-3252.667402,1166976.875000
2071,1,0.000126,-0.149378,0.134537,7851.763689,-1180327.812500,-8229.401446,-584.121643,143.722625,7879.755694,1162092.875000
2072,1,0.119188,0.120501,0.134537,-84113.328776,-190795.539062,-22099.174805,115371.894531,-8590.632812,29912.741699,631087.000000
2073,1,0.105445,0.105691,0.134537,36236.700544,-156230.265067,11935.246931,-55681.101562,9109.913731,12752.404820,278788.718750
2074,1,0.076766,0.076893,0.134537,84162.959229,-127764.622559,-870.116867,-21704.024750,2336.664710,392.585297,174098.203125
2075,1,0.062425,0.062478,0.134537,103456.376465,-101613.587077,1675.186106,-5151.951904,8774.454712,2345.339212,224504.984375
2076,1,0.048092,0.048088,0.134537,65705.921875,-100407.533854,8223.067576,-33048.664062,5895.824636,-14942.794922,417382.843750
2077,1,0.195094,0.025969,0.134537,78656.860483,-262552.676683,-16946.683030,149921.209435,6528.337609,23731.452975,546623.312500
2078,1,0.183032,0.066042,0.134537,-94842.892090,-323140.553711,-7754.520477,193927.820312,-20712.645935,-6558.058731,295255.593750
2079,1,0.167310,0.100316,0.134537,-137145.722656,-383014.997768,-25933.997035,195948.470424,-9121.001299,-27079.053746,236993.625000
2080,1,-0.033916,-0.033740,0.134537,23455.663705,-214073.492188,7460.761004,-2352.963030,30741.113560,1555.590367,221320.406250
2081,1,-0.048120,-0.048066,0.134537,45262.802778,-149213.195871,11869.189802,-58320.426618,-84.455756,15801.260712,212519.593750
2082,1,-0.076892,-0.076766,0.134537,49160.531206,-162220.111049,3118.552420,-55844.501674,-1472.679827,2404.295192,246910.843750
2083,1,-0.091231,-0.091178,0.134537,73131.258301,-139580.111969,1678.237286,-51729.885559,4425.549400,-705.757248,211235.890625
2084,1,-0.105628,-0.105642,0.134537,79871.036377,-103311.196777,24379.891602,-40085.249390,216.000488,-3702.131927,172149.750000
2085,1,-0.134331,-0.160610,0.134537,-69322.298328,-194570.058203,9806.074268,80863.100195,26904.572583,4781.893958,313535.062500
2086,1,-0.101244,-0.183644,0.134537,-28909.882996,-260169.709375,-1684.349414,285669.332813,-2162.353406,-66866.273242,505090.718750
2087,1,-0.192433,-0.025588,0.134537,48343.915527,-252568.055804,-1127.294678,169228.562500,-14384.781198,-34142.410104,342575.312500
2088,1,-0.183973,-0.063634,0.134537,-87065.394671,-346321.333705,-13424.552281,173730.838170,11723.446681,-11985.612435,666013.000000
2089,1,-0.166250,-0.101446,0.134537,-122660.239909,-381102.834635,-8905.820038,201445.458659,8918.651225,22078.965118,402814.375000
2090,1,0.209088,-0.010025,0.134537,76730.175049,-355442.569336,-8158.963898,-58585.920067,13281.440948,-1606.708592,357753.968750
2091,1,0.201456,-0.062697,0.134537,-66166.088318,-159321.734680,3307.139557,-114417.575439,-11345.389748,11814.495197,150508.687500
2092,1,0.185297,-0.098831,0.134537,-43670.041818,-137533.768694,10008.049247,-59638.627093,-11480.822545,9525.135604,109925.523438
2093,1,0.135625,-0.153943,0.134537,-90753.217546,-218125.440365,-4400.336377,-80056.643848,-32698.527930,9129.867871,439934.281250
2094,1,0.059814,-0.201111,0.134537,-149054.607507,-120173.483789,-13285.966016,-2983.413086,846.389792,17084.423584,172474.656250
2095,1,0.040527,-0.205490,0.134537,-141076.811523,-135303.387207,-44641.549942,108889.217041,-26762.679565,25322.473175,416152.781250
2096,1,0.004209,-0.211380,0.134537,-54713.819206,-562281.085417,-97861.018237,7380.711165,-6097.145964,65432.158073,466230.718750
2097,1,-0.118188,-0.172903,0.134537,-20086.015512,-314462.890625,8268.872559,172155.172712,17223.756008,-9682.283796,465532.781250
2098,1,-0.148982,-0.151426,0.134537,-79886.320613,-65465.323543,16666.226638,72186.027719,19083.931087,1516.941486,78035.937500
2099,1,-0.206346,-0.037448,0.134537,-27267.080444,-207476.812500,-3945.919353,152941.674805,387.484756,739.171631,281443.875000
2100,1,-0.211772,-0.001019,0.134537,93254.190169,-335169.739583,-6156.081760,10329.801053,-17911.611545,-2309.577393,458832.125000
2101,1,-0.204480,0.016933,0.134537,88801.543187,-297959.887019,-4202.274038,-99746.636493,-13689.778489,5160.741896,453550.500000
2102,1,-0.201782,0.056967,0.134537,-77295.066162,-162280.574219,1036.277290,-131161.832520,12148.506955,-4089.283829,263749.312500
2103,1,-0.158813,0.135669,0.134537,-78014.547038,-83276.643290,-3635.651103,-119896.061198,5311.751383,-128.661947,268062.375000
2104,1,-0.132739,0.163032,0.134537,-65230.839640,-134647.994629,9981.267756,-59749.600260,17476.204549,-16471.922434,170821.218750
2105,1,-0.101355,0.184775,0.134537,-109543.788574,-249656.273438,10219.694356,-275239.208333,2786.348674,13611.925435,747206.000000
2106,1,-0.014067,0.203871,0.134537,-174066.452714,-619425.628289,-3421.802015,116555.970292,81.851961,-59906.867894,436904.218750
2107,1,0.040636,0.206638,0.134537,-461433.074219,-390684.801758,2445.976562,-74670.185989,9820.929169,-14289.006592,473340.437500
2108,1,0.064314,0.183348,0.134537,90264.223165,-174358.561849,23591.446615,83169.710368,30841.782532,7629.848999,287138.437500
2109,1,0.127749,0.170439,0.134537,-48920.517353,-226592.971755,13089.539851,93621.997446,-17495.720431,-7588.715539,258393.500000
2110,1,0.151901,0.137985,0.134537,-87007.931197,-96265.156694,7463.942305,178203.839489,916.840854,-4978.011557,234070.265625
2111,1,0.176533,0.115321,0.134537,-25241.606236,-146529.168039,-2545.429356,63484.772461,-1049.260975,-11921.279157,171097.000000
2112,1,0.193540,0.081125,0.134537,-75164.710897,-178030.001953,9097.828979,111128.869751,-10039.003316,-13710.412506,236240.468750
2113,1,0.200436,0.062800,0.134537,-75949.091406,-160192.567676,-1587.837891,125674.381641,-11754.814960,-6108.428906,236240.468750
2114,1,0.045743,0.189327,0.134537,-65018.752148,-108645.722070,39699.937305,-62383.345801,-18429.090723,22982.042285,156765.062500
2115,1,0.021155,0.019196,0.134537,189559.603353,-572389.541016,-7043.017293,100179.766927,-26217.765930,17946.056864,729413.500000
2116,1,-0.020342,0.017672,0.134537,183953.818750,-535424.562500,-10254.323828,-57679.231738,15555.884497,16748.630719,851558.812500
2117,1,-0.028406,-0.000823,0.134537,236196.521484,-520846.164062,-17264.870677,-17055.719030,16949.278544,-543.988144,697826.000000
2118,1,0.028665,0.001303,0.134537,242370.415876,-553833.832589,-19950.065122,27133.446106,-35775.965554,3334.667474,729082.437500
2119,1,-0.172289,-0.119876,0.134537,-32074.872559,-181289.985840,1392.948730,100938.656982,15217.627090,15165.766541,293766.937500
2120,1,0.003160,0.189362,0.134537,-124337.637695,-906535.930804,-22507.389404,-4516.400861,-3089.932390,-76649.821708,1165239.000000
2121,1,0.005424,-0.192234,0.134537,377.537509,-729467.375000,-27747.485895,65140.547053,-13410.487094,61022.574285,817895.562500
2122,1,-0.135957,-0.136985,0.134537,-180297.944716,-167158.942112,-2277.710137,147664.258247,16683.795688,975.445055,598532.187500
2123,1,0.136686,-0.131437,0.134537,-181206.799957,-188995.473145,3977.512100,-152666.967285,-14362.720066,-12155.843323,577088.250000
2124,1,-0.087279,0.194566,0.134537,-286917.263221,-285049.254808,16186.776517,-314022.973558,-997.748986,11152.860953,550587.875000
2125,1,-0.184126,0.063945,0.134537,-78735.219238,-305933.698568,-12584.008433,-159023.718750,26146.650635,1532.701362,263749.312500
2126,1,0.081847,0.176071,0.134537,17353.492828,-301320.397461,-80.351318,237551.290039,28080.022308,18939.524048,590191.812500
2127,1,0.190955,0.000746,0.134537,257965.952344,-203532.536979,6980.606331,2517.323344,30032.052344,-473.583336,546623.312500
2128,1,0.130150,0.137590,0.134537,-276603.291016,-216512.698242,-37289.370903,185186.635071,-21392.854607,1503.219322,500073.531250
2129,1,-0.192500,-0.004052,0.134537,203363.040865,-218532.868389,15791.058444,32661.166241,-40438.858549,-3199.101930,281406.562500
2130,1,-0.137632,0.132167,0.134537,-174110.611328,-108671.266667,5959.822070,-215094.231250,4731.087272,4212.193148,369653.343750
2131,1,0.095236,-0.190913,0.134537,-213971.176983,-248925.743164,-12766.400729,-266790.506010,1317.011982,-53636.329327,398376.375000
2132,1,0.206276,0.043972,0.134537,-39683.971680,-172663.240885,-10246.369019,139614.635417,-4368.652868,123.867355,241986.656250
2133,1,-0.195683,-0.076621,0.134537,-60158.184326,-114780.927734,5375.607259,86752.334635,14607.910319,4474.658691,110866.835938
2134,1,0.024607,0.211825,0.134537,-329221.776442,-491518.187500,34655.882812,-163734.325120,9046.440890,-40382.533804,672551.187500
2135,1,-0.036756,-0.205934,0.134537,-126389.350000,-164067.975977,-26493.409180,-155734.591406,20326.800439,16756.279858,236944.359375
2136,1,0.168639,0.129759,0.134537,-16206.125488,-120652.438565,3664.095043,80865.247692,2419.094649,-9081.135315,59932.832031
2137,1,-0.051980,0.206555,0.134537,-546855.627841,-496679.715909,-21537.068537,-47534.394886,-15335.626321,-28991.411843,455408.562500
2138,1,0.168383,-0.131094,0.134537,-7794.246419,-105791.309679,6340.159641,-61714.262858,-11223.909668,2415.872511,191909.031250
2139,1,0.208654,-0.047434,0.134537,-43084.344150,-162732.079545,4877.213423,-128866.892756,-8351.121819,12423.854958,362763.531250
2140,1,-0.193203,0.091683,0.134537,-40099.908691,-75888.783381,10715.457919,-43856.191451,4333.748136,-18128.253729,142608.750000
2141,1,-0.183062,0.104677,0.134537,-17245.564746,-105571.658203,-2572.867334,-46981.786328,9158.413672,-16618.469751,221455.156250
2142,1,-0.082800,-0.193084,0.134537,-143732.558578,-199633.646973,-36551.323242,186877.297989,-34403.468018,-83476.264282,505090.718750
2143,1,-0.060566,-0.203008,0.134537,-206746.770583,-158143.710337,-63873.927622,15988.430533,-15161.538537,1164.252817,236944.359375
2144,1,-0.187052,-0.099632,0.134537,-49959.334292,-136741.556667,14484.453233,63609.597610,15912.872779,7839.920953,91447.210938
2145,1,0.016818,-0.015685,0.134537,162929.999609,-567334.325000,-11843.097555,-11354.533919,-25004.631494,-5837.854948,850393.937500
2146,1,-0.020686,-0.019547,0.134537,163238.376562,-525470.143750,-16189.444727,28618.269531,29025.288840,-22744.243726,622838.062500
2147,1,0.000821,0.022980,0.134537,278539.453125,-740614.653409,-6927.659180,2111.574219,2310.837813,28200.551181,1237830.125000
2148,1,-0.001835,-0.026753,0.134537,251718.886719,-706960.992188,-3795.161255,37327.512939,-2801.883118,-6076.203430,781346.000000
2149,1,0.125912,-0.170683,0.134537,-6926.139782,-231628.737216,9388.711825,-139698.757102,-19629.109974,-1134.394648,354049.000000
2150,1,0.099129,0.167343,0.134537,-42928.256673,-350968.648438,-11117.642359,258596.378906,26650.050741,-4009.565755,523125.031250
2151,1,-0.153503,0.118041,0.134537,-84734.547852,-313394.843424,-24859.951538,-247684.662109,-23786.636597,-27973.341715,710198.250000
2152,1,-0.029206,0.191614,0.134537,-181095.561942,-350570.897321,-15021.293527,310468.563616,28147.943638,-24881.299665,1016749.937500
2153,1,0.099324,-0.164434,0.134537,117277.845703,-255153.383929,9544.426514,-139724.738560,24731.657366,-40334.625977,366356.531250
2154,1,0.192977,-0.022308,0.134537,74383.733390,-267583.302455,-5058.171055,-155031.739955,10808.596558,-25666.459098,410211.562500
2155,1,-0.005994,-0.002474,0.134537,267757.427083,-631107.077083,-5324.402816,-12322.922363,2220.704647,8444.471224,851558.812500
2156,1,0.012293,0.005064,0.134537,278161.130208,-637362.305556,-2470.435248,34095.952365,-3153.751152,1679.167389,850393.937500
2157,1,0.211892,0.028164,0.134537,5578.433727,-273810.646307,-6385.567481,130942.907670,3647.069414,-3737.503240,312101.875000
2158,1,-0.063741,0.181089,0.134537,116215.403809,-139953.086614,33645.743502,-94053.327825,-29468.366643,-56.844426,437307.687500
2159,1,0.117907,0.156633,0.134537,-138797.283647,-378849.056818,-16668.233004,195582.381392,-9648.909008,-26010.975186,794165.812500
2160,1,-0.129819,0.147964,0.134537,-229483.657670,-235064.633523,-22829.227051,-86083.734553,25876.812611,-22820.177512,389060.625000
2161,1,0.027061,-0.191950,0.134537,-59233.516497,-298335.861468,6363.262137,226707.979353,-65908.797398,19502.952100,721028.937500
2162,1,0.123754,0.101800,0.019220,233798.755208,89578.070964,110722.728027,226679.223470,-14863.320913,-25974.329529,480170.250000
2163,1,0.123754,0.101800,0.038439,230455.399740,78698.688802,132427.163249,217514.174072,-14268.201976,-24811.802124,496266.562500
2164,1,0.123754,0.101800,0.057659,235806.868862,72018.143973,138072.767369,213286.015974,2377.450191,-969.714007,215041.125000
2165,1,0.123754,0.101800,0.076878,247384.575928,77659.860937,133339.697949,265206.731738,5658.649194,13639.617749,861595.937500
2166,1,0.123754,0.101800,0.096098,237084.190226,96023.669271,131432.908427,225274.365234,-6659.169379,19091.169535,867086.062500
2167,1,0.123754,0.101800,0.115317,194665.062134,57810.261230,91150.234070,173757.346191,7826.278641,22324.591032,257190.265625
2168,1,0.109375,0.087421,0.019220,222839.612630,30601.987956,64580.176758,123831.134359,2559.046092,-6758.821493,533236.062500
2169,1,0.109375,0.087421,0.038439,232006.524740,33727.048177,87333.608073,124788.191284,-4276.090352,-2169.066203,298266.843750
2170,1,0.109375,0.087421,0.057659,239520.669085,24262.561523,106449.638951,119755.917550,-3069.435111,-9215.400077,453739.468750
2171,1,0.109375,0.087421,0.076878,247329.065625,45352.884375,101899.828027,129199.804199,2882.616772,2836.155914,266868.718750
2172,1,0.109375,0.087421,0.096098,237367.789714,40169.359375,88311.557912,130042.863688,9635.565776,12090.675618,193579.984375
2173,1,0.109375,0.087421,0.115317,217078.317952,21318.859212,55775.793945,141486.622192,9780.403509,1060.781311,345633.593750
2174,1,0.094995,0.073041,0.019220,120849.238839,-69889.246652,15840.764141,23895.960074,7742.126988,5962.798466,275532.656250
2175,1,0.094995,0.073041,0.038439,135307.776042,-47064.459635,27576.989271,45521.893077,4293.914749,2716.823077,162246.562500
2176,1,0.094995,0.073041,0.057659,137456.207682,-45733.666016,33938.371129,48990.239054,-4234.712290,-3026.347504,166209.671875
2177,1,0.094995,0.073041,0.076878,131839.381510,-54514.402018,34012.415599,41444.172363,-1548.202538,-686.243622,166209.671875
2178,1,0.094995,0.073041,0.096098,133207.595703,-54694.202637,26567.771840,41908.760254,3661.470901,1697.641520,165699.640625
2179,1,0.094995,0.073041,0.115317,135496.637939,-66753.508179,18571.003998,38295.896667,-1034.987156,-4836.928711,212995.531250
2180,1,0.080616,0.058662,0.019220,50568.617955,-142703.287946,-13559.357487,-47786.143659,7394.331532,12309.410261,292864.187500
2181,1,0.080616,0.058662,0.038439,51606.468750,-136025.457682,-15470.584108,-42940.115285,3153.697018,4647.887232,158535.234375
2182,1,0.080616,0.058662,0.057659,57077.957275,-128326.630859,-10949.709539,-36484.478475,898.389286,129.385162,155736.343750
2183,1,0.080616,0.058662,0.076878,55655.614746,-132823.547526,-9288.664042,-35596.934448,-1380.891986,-1816.584666,250991.343750
2184,1,0.080616,0.058662,0.096098,56418.811489,-140565.551897,-6876.254565,-40380.791600,-1197.100725,-6336.976650,165699.640625
2185,1,0.080616,0.058662,0.115317,58612.686133,-129967.212500,-5759.425513,-36782.978223,-4231.728268,-14372.348779,165699.640625
2186,1,0.066236,0.044283,0.019220,-11973.396179,-205541.589844,-34729.179016,-110409.411530,1807.042717,18465.689606,168791.468750
2187,1,0.066236,0.044283,0.038439,-21421.444906,-208852.332031,-44332.341593,-126573.063151,4747.542494,3285.182098,165239.125000
2188,1,0.066236,0.044283,0.057659,-27332.149984,-204103.483724,-41582.869222,-120834.109863,1413.054503,1232.443473,450941.625000
2189,1,0.066236,0.044283,0.076878,-28466.416992,-212012.679688,-43331.010905,-122188.744385,-2341.234797,-3604.830789,256229.765625
2190,1,0.066236,0.044283,0.096098,-47780.851221,-220380.538672,-47370.012109,-145307.559375,-4547.339050,-2364.098047,250991.343750
2191,1,0.066236,0.044283,0.115317,-37804.551367,-221118.084375,-29024.658392,-134891.223267,-3944.992053,-26245.988037,201076.390625
2192,1,0.051857,0.029903,0.019220,-73607.132867,-291377.733615,-57495.158088,-136732.356038,2624.139023,20815.495931,246266.234375
2193,1,0.051857,0.029903,0.038439,-129523.070475,-347848.098958,-90956.531331,-184237.646484,10256.656942,-11258.792155,597755.812500
2194,1,0.051857,0.029903,0.057659,-122543.616699,-327466.356120,-82085.188965,-180974.625651,3835.641454,5342.981323,450941.625000
2195,1,0.051857,0.029903,0.076878,-124908.089518,-348702.872396,-90125.251302,-192383.373047,-1272.925374,4437.803202,450941.625000
2196,1,0.051857,0.029903,0.096098,-123318.982422,-344455.310547,-89683.094767,-192369.829753,-3357.546600,-2539.838308,631690.375000
2197,1,0.051857,0.029903,0.115317,-129454.234212,-324223.751302,-71622.850871,-193873.514974,-7141.165525,-6830.703206,578645.125000
2198,1,0.057813,0.015524,0.019220,438286.431641,-71833.389740,49760.811180,4529.544575,33069.768464,-6741.275261,585358.062500
2199,1,0.057813,0.015524,0.038439,462029.192708,-29981.601969,87770.667806,893.012436,24292.146052,-3543.425680,347463.187500
2200,1,0.057813,0.015524,0.057659,458837.150000,-14095.046094,88927.485156,6832.146997,11150.029803,-9004.062781,347463.187500
2201,1,0.057813,0.015524,0.076878,453568.111607,-37973.965942,84152.395926,20629.564401,-16211.467442,-2329.426457,529368.125000
2202,1,0.057813,0.015524,0.096098,458143.225446,-16359.638724,65894.433036,22004.853882,-21668.080601,-181.359249,369348.812500
2203,1,0.057813,0.015524,0.115317,446812.937500,-24111.647314,51188.817627,41.761963,-41874.884277,-2469.158203,633342.125000
2204,1,0.078149,0.015524,0.019220,427533.679688,1610.398778,13335.494324,1057.866867,5148.136618,-1722.202332,388174.625000
2205,1,0.078149,0.015524,0.038439,470193.062500,7215.533539,36867.022786,-1190.083883,7347.514771,-3526.273141,452194.281250
2206,1,0.078149,0.015524,0.057659,482018.536458,11370.298340,43419.825073,-3648.734599,3263.966382,-2113.404735,464357.218750
2207,1,0.078149,0.015524,0.076878,475340.424479,5042.880208,38965.596962,2855.361633,-7475.281809,-1333.481356,467887.781250
2208,1,0.078149,0.015524,0.096098,468597.453125,4214.900909,30796.148336,3453.030752,-10689.813441,2919.103327,467887.781250
2209,1,0.078149,0.015524,0.115317,435160.371094,-611.733856,18611.682007,-1699.538017,-8942.819706,2899.175217,446978.781250
2210,1,0.098484,0.015524,0.019220,429472.263672,820.097279,1202.443642,6017.052818,-1540.444435,-206.045307,431453.125000
2211,1,0.098484,0.015524,0.038439,471084.513021,1303.522532,7086.670431,4566.489594,-548.481248,-1634.352414,467423.218750
2212,1,0.098484,0.015524,0.057659,485359.723958,662.987479,10587.172267,3386.130133,-610.544740,-262.812643,467423.218750
2213,1,0.098484,0.015524,0.076878,485791.315104,-149.700343,10283.171481,4792.175130,-2589.243468,305.295052,464357.218750
2214,1,0.098484,0.015524,0.096098,475359.791667,336.324122,8153.060514,3361.240045,-2320.808498,1909.865626,477336.062500
2215,1,0.098484,0.015524,0.115317,436043.615234,507.642960,799.685837,1739.675911,-787.602672,2069.534063,467387.750000
2216,1,0.118820,0.015524,0.019220,438446.642857,207.113537,211.198402,6456.958897,-1057.555359,-1365.996985,431453.125000
2217,1,0.118820,0.015524,0.038439,474111.486979,1235.982005,3144.235956,4691.948385,-2922.523725,-889.216523,478845.875000
2218,1,0.118820,0.015524,0.057659,491245.023438,921.633954,9130.400637,3998.365458,-864.398582,466.615049,484260.781250
2219,1,0.118820,0.015524,0.076878,493008.192708,-125.744639,7408.283479,4288.401021,1441.671082,1207.913692,489270.750000
2220,1,0.118820,0.015524,0.096098,479795.627604,-120.404663,4470.975478,3705.795012,2436.864826,1506.113986,477336.062500
2221,1,0.118820,0.015524,0.115317,446293.257812,-2444.037570,-393.938731,2427.581729,-1494.039459,2610.200338,407239.062500
2222,1,0.139155,0.015524,0.019220,446077.359375,545.435852,10164.019165,8371.436747,-3660.155426,-1144.329705,450392.593750
2223,1,0.139155,0.015524,0.038439,477061.460938,2794.631129,17096.722514,5724.596476,-7232.531606,-166.357435,476507.843750
2224,1,0.139155,0.015524,0.057659,493935.786458,4189.042623,31379.726034,8214.672017,-3233.580757,2420.536467,484829.156250
2225,1,0.139155,0.015524,0.076878,497138.726562,3332.767105,31428.318766,7479.230530,6283.738614,1644.461454,469401.156250
2226,1,0.139155,0.015524,0.096098,492727.010417,5045.578812,24297.828950,5761.217428,8986.153178,3216.120735,458282.593750
2227,1,0.139155,0.015524,0.115317,447646.798828,2035.271881,6050.478233,3530.805611,2036.267300,2026.468786,460551.968750
2228,1,0.159491,0.015524,0.019220,467239.770833,6372.609868,45039.229960,14266.432841,-19535.161153,-2024.720968,493044.968750
2229,1,0.159491,0.015524,0.038439,486877.049479,6682.584880,63941.584554,11215.779338,-17156.533325,3715.549537,468949.343750
2230,1,0.159491,0.015524,0.057659,502450.664062,8808.077016,83279.598796,17785.129395,-5700.426900,4230.232460,439131.562500
2231,1,0.159491,0.015524,0.076878,496406.890625,5881.939667,82118.885579,19018.861247,15065.191101,5824.357259,469401.156250
2232,1,0.159491,0.015524,0.096098,508068.682292,12934.286331,81269.379557,19564.997965,27099.361023,6010.964386,469401.156250
2233,1,0.159491,0.015524,0.115317,479401.725446,6605.610840,41707.991089,12311.497950,24888.192121,5297.891294,559736.812500
2234,0,-0.191827,-0.007902,0.013259,176827.308559,-218602.652204,10095.543553,45841.476022,22193.982091,7271.536082,293524.156250
2235,0,-0.210835,-0.020232,0.017145,33612.217032,-314697.028245,-12882.318665,79020.392353,4472.913239,1222.557013,367383.687500
2236,0,-0.198904,-0.017536,0.027675,88917.382369,-263634.570312,-6336.971852,95891.041193,1988.897006,7108.617174,367383.687500
2237,0,-0.187372,-0.003591,0.029812,215641.383398,-143218.567505,31297.831396,13685.192334,22452.943906,-1826.066547,223274.687500
2238,0,-0.199553,-0.027581,0.012972,60111.364105,-252734.786133,1514.052277,152168.980957,9184.058407,11367.516399,437297.750000
2239,0,0.017262,-0.001417,0.058955,167686.769081,-542278.387019,-12689.506812,18375.107464,4818.719590,-1614.912195,584181.687500
2240,0,0.015524,-0.018739,0.052854,116270.994838,-510502.064174,-7369.187520,-27442.450431,7089.038722,10991.530010,343384.281250
2241,0,0.003478,-0.003971,0.041781,182673.053977,-584342.383523,-8046.197130,4998.629089,-1810.988828,1635.826272,718510.125000
2242,0,0.024227,0.002273,0.043244,176476.700045,-521744.486779,-25773.280501,13168.151639,8528.412889,2960.587745,658658.187500
2243,0,0.022536,-0.021097,0.070446,94821.504794,-471559.922585,-6524.967130,-27929.177002,2287.107605,-686.120289,498703.031250
2244,0,0.010577,-0.007924,0.072495,159898.778646,-563762.423611,-10710.396406,5420.753798,-524.002733,-943.378954,584181.687500
2245,0,0.047494,0.000833,0.055726,416637.719669,-201695.433062,71222.851659,4991.965993,8300.662321,-1662.634544,347463.187500
2246,0,0.028950,0.001290,0.070297,158206.711182,-514308.670312,-28908.264777,21895.015579,-353.669122,751.774334,712424.000000
2247,0,0.015524,0.018739,0.057659,133065.891073,-509214.009115,-18635.489024,42413.798220,10755.422821,-4230.193202,789188.375000
2248,0,0.016679,0.022117,0.028627,145731.198806,-565847.677584,-14709.825843,73212.866047,25005.253493,-18750.456139,578993.000000
2249,0,0.025545,0.025476,0.014094,130129.502344,-404437.194434,24518.169145,80230.106592,20241.590784,-6366.099463,707883.937500
2250,0,0.033690,0.033690,0.028829,47276.656291,-219501.888753,24558.031091,34253.623942,27395.634989,-393.327154,666701.625000
2251,0,-0.211219,0.019824,0.118358,38716.108962,-319165.757812,-10901.852946,-87901.169546,-3739.105908,2360.698637,365122.281250
2252,0,-0.200138,0.030846,0.120279,16549.406572,-245749.018630,-4645.362751,-148616.070613,-2216.328632,12097.365427,370933.125000
2253,0,-0.195290,0.014057,0.101903,123734.635216,-237743.389799,5783.548847,-87285.412871,-6923.657049,11138.098680,332044.343750
2254,0,-0.208094,0.035167,0.107498,-20220.293002,-238758.960227,-8595.683669,-125330.068182,4867.946167,-4872.635386,322831.062500
2255,0,-0.211846,0.002787,0.120198,76803.661504,-341884.539844,-9152.839240,-12820.589979,-6822.715361,5947.282928,365122.281250
2256,0,-0.194211,0.008087,0.122008,173114.098605,-238550.205404,3638.820374,-49000.893098,-20794.471039,8967.206472,333552.375000
2257,0,0.017924,-0.020562,0.033576,111396.216105,-516032.400391,-9979.906720,-36845.055888,15994.596123,4637.386951,689233.125000
2258,0,0.033727,-0.033113,0.028758,26952.454997,-267987.623698,10586.593587,5464.377625,21753.788818,3207.707275,570096.000000
2259,0,0.033690,-0.033690,0.048049,18585.231490,-280648.453835,9024.826793,5627.193481,14954.664206,8971.140808,738402.750000
2260,0,0.016537,-0.021999,0.015826,141274.239641,-526680.444754,-6256.233307,-49471.536895,19678.546576,6189.632131,730081.687500
2261,0,0.021687,-0.001381,0.027299,186681.527065,-536471.702009,-18144.323927,9504.130651,15613.454036,-2477.247306,658658.187500
2262,0,0.060726,-0.061956,0.104928,44440.710286,-157054.586263,10098.252035,58521.901204,1926.614451,8851.587024,186677.453125
2263,0,0.057371,-0.063630,0.121874,45283.888916,-144650.857639,5972.520647,52566.005534,7161.696645,294.884908,230996.359375
2264,0,0.074523,-0.076399,0.118744,33437.309150,-159864.242188,4762.203940,66250.022386,2959.564624,-2777.956163,186677.453125
2265,0,0.046167,-0.046073,0.109042,49637.263494,-153134.677202,23555.752533,67037.641158,-8289.596746,11888.816800,244197.781250
2266,0,0.210845,0.028430,0.009525,663.822021,-274507.979687,-8018.969740,138470.079687,-1174.133975,-3984.537280,400501.562500
2267,0,0.193431,0.035107,0.012072,-32324.287265,-266920.987926,-11721.445483,175169.534091,7651.857681,-14986.695468,457631.937500
2268,0,0.199320,0.016974,0.013563,92653.012451,-307243.027995,-12100.129618,120067.923421,-8415.022524,-12483.209359,428979.437500
2269,0,0.194876,0.024495,0.026829,69326.191294,-282437.771635,-6070.324826,154105.471755,-5815.132011,-18653.172403,400501.562500
2270,0,0.210071,0.006228,0.031247,83378.744582,-327496.365385,-12806.999063,31215.621845,-5125.094529,-2129.683938,459915.031250
2271,0,0.003658,-0.028161,0.067496,158489.916166,-705123.019231,-17640.424354,-16413.063139,-763.832562,-822.443456,706060.562500
2272,0,0.015321,-0.019064,0.091621,137532.869860,-531728.221628,-6399.305711,-20389.427545,-7330.307971,-6065.987740,687292.687500
2273,0,0.033690,-0.033690,0.086488,32104.587646,-274019.498698,21095.886393,15049.862305,-11401.513938,2542.721418,777705.187500
2274,0,0.033690,-0.033690,0.067268,16252.989095,-264074.674479,15412.175659,12210.142660,4114.618952,1420.240349,711197.875000
2275,0,-0.209588,-0.001521,0.026576,88171.445312,-315535.557943,-13136.973450,14134.573466,9975.658033,2641.070938,334972.593750
2276,0,-0.209406,-0.015992,0.121959,73171.105632,-301327.619141,-4234.948598,76868.706787,-11134.305199,-1451.725612,336849.093750
2277,0,0.201413,0.066466,0.011617,-70884.416406,-143671.625244,3091.475580,107415.948633,7061.581799,11703.980005,141353.984375
2278,0,0.206763,0.048816,0.012025,-51777.851296,-198661.230469,-445.181469,134514.649148,5816.894121,2394.520619,268384.812500
2279,0,0.143075,-0.155364,0.013002,-114100.429027,-144863.818585,1350.790490,-84923.071129,21378.311326,3879.046890,277972.468750
2280,0,0.124927,-0.149866,0.031382,-169620.587047,-441176.878462,-70471.820634,-132441.667525,3974.989532,25174.574474,626870.937500
2281,0,0.140558,-0.134930,0.025329,-187720.307204,-134777.318197,2634.790426,-195018.316895,12242.636007,-6298.401586,284302.187500
2282,0,0.127432,-0.131543,0.015872,-201944.055777,-243879.735577,-25720.573242,-96799.880240,4400.080322,32114.455166,350975.062500
2283,0,0.185908,0.060522,0.025560,-87412.380771,-354312.345170,-28063.286471,183826.487926,9629.759344,-8843.482172,426758.312500
2284,0,0.205701,0.049853,0.032024,-58934.620199,-198274.024089,97.864335,131901.284831,3468.146790,-1625.564186,335178.187500
2285,0,0.191836,0.052339,0.012106,-70227.619591,-298694.653846,-9524.164700,171823.727464,11296.500070,-10966.554819,426758.312500
2286,0,0.185164,0.071333,0.011498,-90948.445876,-255179.423093,-4948.459646,141385.035006,10290.412001,2036.470104,106082.117188
2287,0,0.199843,0.068580,0.032000,-68460.677321,-166754.758075,10526.487855,106502.810096,3149.898580,167.737462,295383.218750
2288,0,0.097684,-0.185820,0.012484,-123344.223633,-288475.141226,-48119.370192,-284208.562500,-6845.451810,50286.848670,430668.468750
2289,0,0.114107,-0.179780,0.011763,-74275.015734,-249290.889757,-5793.734375,-249107.738715,20341.612959,26549.516140,361271.562500
2290,0,0.090985,-0.190814,0.025452,-232528.773615,-518348.397727,-136905.474734,-287612.576616,2277.826061,95872.603061,449118.656250
2291,0,0.080849,-0.175637,0.012629,138467.244318,-175511.542081,16242.210102,-66746.852273,-45541.945490,48746.194869,298966.656250
2292,0,0.170595,0.127553,0.018523,-23402.800766,-135652.598557,4768.810440,95079.473175,4291.571846,6974.851628,88032.976562
2293,0,-0.179204,0.110503,0.070514,-33854.295598,-142406.707332,10276.725947,-65443.092698,1223.994817,-831.613444,376228.625000
2294,0,-0.158718,0.113909,0.082794,-80943.843715,-258592.265067,-25836.957868,-193272.782645,-2316.048218,-5951.190564,420300.718750
2295,0,-0.170513,0.127893,0.085150,-29317.488195,-108144.943718,17508.930145,-73231.656143,3479.977803,-5128.514061,420300.718750
2296,0,-0.179425,0.110519,0.089625,-35811.864299,-141066.863932,12512.238022,-66397.398519,1002.185993,-4002.296884,211657.031250
2297,0,-0.188814,0.093462,0.089625,-48317.959880,-132569.478841,15549.787760,-67398.910360,1511.219348,-5048.043661,183994.859375
2298,0,-0.188814,0.093462,0.070406,-47756.024928,-139196.031576,15582.956543,-69606.142049,1087.151145,-646.737294,395833.906250
2299,0,-0.169079,0.098057,0.083219,-119082.379439,-338277.705611,-50771.100370,-180816.264560,-335.265043,-6887.620458,410540.281250
2300,0,-0.208999,-0.033782,0.025715,-23679.121626,-226857.981534,-5957.173290,130092.906960,-3403.179147,17.528490,266921.125000
2301,0,-0.209316,-0.027696,0.047853,525.024527,-268499.756611,-16407.209726,106903.654597,-277.273849,2251.923112,284319.718750
2302,0,-0.196605,-0.014497,0.045052,109361.510213,-256409.317708,893.056630,86933.592641,6531.537183,3741.410980,334972.593750
2303,0,-0.192546,-0.031786,0.030480,-5146.119661,-261911.928486,-20543.453049,153341.334435,-3493.358617,17534.591499,452111.250000
2304,0,-0.001447,0.028181,0.102032,190714.738991,-750964.068182,-12983.132568,-8618.629972,6180.738653,26615.105913,823415.812500
2305,0,0.004178,0.029800,0.120599,229576.111506,-778182.026989,-3714.929887,37256.472479,809.248036,37063.287925,1237830.125000
2306,0,-0.000000,0.047645,0.105707,2678.313776,-1299679.068182,-136755.604820,-826.318404,1677.829240,59102.271146,1276506.125000
2307,0,0.016457,0.018671,0.096592,155626.385943,-527411.666360,-1188.704026,65971.372580,-17824.519750,3931.289443,649636.562500
2308,0,-0.003976,0.028184,0.084183,168048.460449,-743324.908854,-19193.340942,-39226.955404,3733.958542,19834.665291,924234.812500
2309,0,-0.000000,0.047645,0.086488,5556.655334,-1291915.328125,-148312.118835,-8820.498698,173.405080,36192.439189,1301320.125000
2310,0,0.012762,0.004844,0.084802,168630.438477,-566120.694010,-16343.185682,22346.134989,-3641.975501,1272.090228,701857.437500
2311,0,-0.000607,-0.000971,0.062902,183464.544922,-578474.738281,-7022.140198,5265.336077,1665.299516,-1904.262106,701857.437500
2312,0,0.029333,0.000911,0.087995,151849.865191,-502452.242898,-27050.628329,17665.610008,-14790.605191,-315.417315,650904.750000
2313,0,0.011857,0.006136,0.107070,206870.870117,-570519.007812,-6435.017616,25110.134583,-10036.264893,-2341.954467,659883.125000
2314,0,-0.008430,-0.017129,0.076860,179421.728906,-560654.864583,-4513.631667,10632.537467,1681.251702,-4971.333217,706060.562500
2315,0,-0.004605,0.009200,0.092929,184286.492513,-618659.699219,-16200.202596,-9894.295858,666.857193,6679.848297,696777.750000
2316,0,-0.010838,0.000394,0.074960,191784.095312,-561358.800000,-12308.513318,-7773.570139,3006.519943,-1192.963266,701857.437500
2317,0,0.007762,0.018739,0.072073,161151.372721,-617616.455729,-16288.716618,50509.438818,1428.816386,-4667.191947,789188.375000
2318,0,-0.187201,-0.093589,0.044117,-44326.165727,-144936.396662,18593.686990,74941.976368,-6970.885884,-872.297388,176188.687500
2319,0,-0.186162,-0.093167,0.026798,-54573.056996,-151879.302557,14380.340141,72910.918990,-5410.638836,-4319.097845,227980.734375
2320,0,-0.196596,-0.077709,0.032850,-60929.337646,-150526.542081,15468.294350,80794.923606,-1915.539198,-3239.049591,176188.687500
2321,0,0.147464,0.131983,0.013820,-122641.842061,-119704.287048,13230.418762,224866.503581,733.644946,2935.613580,567722.250000
2322,0,0.152239,0.147047,0.032029,-112750.347177,-55202.243018,16838.358221,104346.574561,10850.802884,800.350079,76008.726562
2323,0,-0.193958,-0.081235,0.054521,-60058.911255,-172464.125000,6635.141335,86540.204834,719.313305,-3671.288086,176188.687500
2324,0,-0.199702,-0.070116,0.025634,-59276.601674,-155872.303060,10865.031382,102544.595093,-7131.354919,-2291.107807,84846.164062
2325,0,-0.199702,-0.070116,0.044854,-49767.057945,-136120.993608,17946.738531,86793.917369,-1921.601649,-4297.449760,389491.906250
2326,0,-0.081433,-0.194537,0.064075,-244578.708496,-563937.772786,-185890.893311,247022.169487,1694.419168,1183.887678,1454664.000000
2327,0,-0.090510,-0.190335,0.051186,-234049.322062,-587507.847656,-160481.790944,358126.384115,17437.793569,-961.480204,782784.187500
2328,0,-0.080423,-0.176769,0.070480,134481.638334,-287031.446115,38042.301147,84073.332632,-4668.287243,-449.811965,614357.125000
2329,0,-0.079736,-0.178484,0.044780,151685.520264,-260945.101171,47008.957225,74001.400716,11965.993492,18933.974782,169899.515625
2330,0,-0.099037,-0.186192,0.064075,-148015.570890,-366381.924006,-53574.018322,352149.592330,2715.331299,177.828405,709325.375000
2331,0,-0.090510,-0.190335,0.083351,-238142.951823,-545869.761719,-149258.847605,368658.229167,-15684.071772,13878.101659,735907.312500
2332,0,-0.065499,-0.201284,0.070878,-139420.987413,-203312.869575,-79125.781562,-35362.594303,7630.919800,-3070.370446,94421.843750
2333,0,-0.195716,0.078884,0.081650,-54071.636097,-153991.367720,12345.486389,-87607.573420,751.129053,-3276.238066,141027.750000
2334,0,-0.199702,0.070116,0.070463,-46987.293208,-143275.778846,14155.232366,-93709.284367,-1768.873812,-1772.175681,229791.625000
2335,0,-0.193958,0.081235,0.099235,-67255.777283,-167394.082227,6901.515176,-93931.797656,2408.889563,-5118.395222,183994.859375
2336,0,-0.199102,0.069008,0.089625,-59867.826379,-160466.550195,11345.456207,-96724.440149,1358.796402,-2243.281178,72008.109375
2337,0,0.149323,0.000000,0.105707,462528.804688,7116.265437,25734.697107,4292.105652,14455.033130,-32.974805,421341.375000
2338,0,0.109007,0.106407,0.050073,102738.513346,-105691.644857,49107.811076,-11607.227559,-5131.807760,-8978.521494,174896.734375
2339,0,0.120040,0.119952,0.048088,-59288.861861,-208593.219460,-2033.836004,100732.717907,-8265.493131,-12619.851807,688554.125000
2340,0,0.100181,-0.164915,0.019072,83580.152832,-279320.821987,30388.278360,-180428.897321,-15168.392275,31647.763277,276131.812500
2341,0,0.088333,-0.173889,0.031289,127492.438232,-303712.406550,46589.279482,-118341.148438,-25315.162391,54560.719867,783909.062500
2342,0,0.109068,-0.181813,0.025836,-102058.799756,-349068.471875,-7176.431836,-304664.905469,17513.154785,74556.600488,804560.937500
2343,0,0.100542,-0.185992,0.048862,-220461.100407,-636355.360417,-132494.968880,-357508.587500,1989.584538,37057.439225,811036.875000
2344,0,0.191475,0.090057,0.031805,-62352.782339,-122300.130754,17443.848807,66991.686749,9907.238216,6325.534170,245032.265625
2345,0,0.119819,-0.172327,0.031475,-47621.661813,-333903.250279,12095.055664,-198951.758650,11150.702469,33414.825509,330089.312500
2346,0,0.111380,-0.159679,0.044068,9459.778397,-456208.956055,-3848.400208,-201539.506958,-3261.223879,25629.987421,626870.937500
2347,0,0.008708,0.195234,0.115317,-116411.019328,-667580.794271,-22843.975830,-114188.323059,-13426.746831,-59647.234584,865799.187500
2348,0,0.008708,0.195234,0.089717,-109955.122213,-646820.035156,-25284.905640,-109307.447835,-12119.080017,-21193.558487,704270.750000
2349,0,0.001214,0.210727,0.108797,-128072.561035,-501522.239583,39747.065826,-13408.283752,-4869.524387,-27697.480751,428010.937500
2350,0,0.015580,0.208859,0.098091,-166665.419809,-424923.661659,54079.221558,-125041.939754,-10504.615887,-5226.355034,488411.531250
2351,0,0.097452,0.176953,0.017989,-56805.670455,-301523.683949,720.741455,265037.356534,-20149.645286,1683.634682,615076.125000
2352,0,-0.003435,0.208378,0.089455,-126219.474854,-472839.062960,53205.597383,62289.102123,-5067.798166,-7891.184737,606659.375000
2353,0,0.015749,0.201965,0.077197,-123979.144165,-466972.579688,31022.521802,-159393.281641,379.423273,-3159.627576,595573.687500
2354,0,0.028496,0.208461,0.089707,-289791.358073,-258314.651367,56505.189585,-134826.441284,-4436.811979,6670.903427,471385.468750
2355,0,0.024372,0.193151,0.086347,-91067.067560,-319881.810014,43490.748757,-262445.284091,-14556.605635,-5902.451227,391468.718750
2356,0,0.021958,0.194353,0.102478,-100255.234924,-396289.252767,21018.152964,-253305.735026,-29271.736481,-20967.133232,488411.531250
2357,0,0.018330,0.208569,0.121544,-184287.254272,-459254.746094,20608.922211,-194573.593750,-10629.320707,-48933.836060,488411.531250
2358,0,0.028007,0.208552,0.109947,-310469.350142,-309306.957564,38989.655950,-137093.389737,-1033.904815,-25542.184645,488411.531250
2359,0,-0.160585,-0.137962,0.037040,-41788.530980,-58292.540324,34438.744771,94349.650472,-6749.153245,3377.685926,194400.078125
2360,0,-0.157498,-0.128594,0.018501,-58048.068368,-165961.012370,5468.249961,161178.250000,1945.411543,-1133.300263,539268.500000
2361,0,-0.149270,-0.149188,0.025349,-115261.069280,-112609.015706,10149.746318,80927.666341,-10086.753511,-166.470247,81530.875000
2362,0,-0.147769,-0.127150,0.032374,-111525.421509,-180410.097447,637.968610,207382.083426,130.003749,1697.900653,385264.156250
2363,0,-0.148716,-0.149448,0.050663,-115460.945801,-116790.796712,19515.381795,88373.689046,-4041.750575,4768.265409,385264.156250
2364,0,-0.173421,-0.120847,0.026813,-27633.366058,-121530.849731,15322.276405,58975.629354,-1702.781095,2273.225444,431073.406250
2365,0,-0.170812,-0.121929,0.044571,-40744.647425,-162743.263245,11113.349915,92837.744954,-1700.102073,-5226.382581,431073.406250
2366,0,-0.002793,-0.196561,0.056792,-25947.634375,-665657.025000,-100307.311145,-23609.991113,-3783.206628,-18308.759863,526613.187500
2367,0,-0.014284,-0.193410,0.069111,-3081.562265,-549952.376991,-72097.489643,-146071.384540,1426.923257,3540.469431,554855.000000
2368,0,-0.022729,-0.209791,0.064592,-70651.693433,-296728.225521,-69505.806445,-129264.112240,-1154.800360,-5186.346114,246687.734375
2369,0,-0.009119,-0.211955,0.070078,-55539.757835,-454349.193182,-109934.017856,-40985.779519,1803.994907,2007.489413,398672.250000
2370,0,-0.000531,-0.210220,0.046547,-55059.623990,-490204.738636,-112609.533736,-20451.659468,-992.949771,-20577.625641,375307.093750
2371,0,0.015850,-0.209204,0.052277,-48943.137280,-408986.347917,-82690.830273,97264.577865,4859.103105,-11048.418213,398672.250000
2372,0,0.000092,-0.170568,0.067164,-92611.638620,-1086134.866071,-147349.807966,3154.134417,-1555.891321,-761.340741,1160775.875000
2373,0,0.001522,-0.173548,0.045505,-92649.212008,-1094878.038462,-141865.330228,-782.515550,1744.890535,-33220.657434,771467.937500
2374,0,0.008761,-0.196114,0.070576,-18073.078809,-594050.575391,-91864.940735,85094.172998,308.094708,-2996.140430,526613.187500
2375,0,-0.024520,-0.001994,0.054696,170154.189478,-518787.454167,-25388.250781,-20063.770709,-12141.532821,-3891.953251,647400.375000
2376,0,-0.015524,0.018739,0.072073,129220.691862,-536277.758333,-17149.249674,-65793.331234,5712.112594,1804.646008,321941.781250
2377,0,-0.007657,0.009226,0.048572,170898.658203,-611814.091518,-16575.954110,-13926.863198,-4534.118019,-3437.761436,789188.375000
2378,0,0.003900,0.010907,0.027893,206014.331676,-619381.062500,-2366.056946,9419.418124,8139.382235,-8529.202520,659565.125000
2379,0,0.008656,0.018663,0.042956,175144.206543,-568108.232955,1697.733665,54506.461159,9051.188280,-2384.415172,601490.437500
2380,0,-0.014018,-0.004182,0.038678,156268.413281,-572534.181250,-14650.929321,-4000.591785,-16746.203690,4702.823944,645393.187500
2381,0,-0.006933,-0.018639,0.052911,173925.640904,-596564.595982,-5493.785854,17898.606099,-3700.301001,2883.557170,967152.937500
2382,0,-0.064573,-0.183773,0.048049,172406.234782,-104683.805697,77473.544271,-90870.433594,7031.665652,4937.943319,169899.515625
2383,0,-0.047212,-0.188109,0.056751,144375.314838,55536.604466,112549.147273,-129648.461313,-10601.105175,2504.682481,123885.703125
2384,0,-0.049411,-0.189062,0.032098,76451.987101,19571.317609,69860.214890,-122012.973796,-8767.133870,1383.913498,171386.890625
2385,0,-0.047098,-0.205358,0.044911,-100690.286433,-78656.423969,-19575.656647,-96409.443829,-8133.024116,-6702.258197,123885.703125
2386,0,-0.072538,-0.197833,0.051186,-88919.708158,-264894.456005,-67791.522583,4867.440524,-2114.701843,4351.439502,123885.703125
2387,0,-0.072538,-0.197833,0.031967,-98042.299805,-342007.050572,-62133.320356,32894.796753,3399.841601,-14991.967547,518261.562500
2388,0,-0.064716,-0.182955,0.018919,182816.720785,-60331.146006,66866.734049,-104273.144999,16356.842316,15199.082222,597040.812500
2389,0,0.182407,0.104571,0.041576,-58479.291553,-154457.096143,6606.164038,68387.201709,-2806.334241,9474.244812,255765.218750
2390,0,0.178087,0.113099,0.015955,-40420.932129,-146643.742350,4675.846807,66824.232788,3487.257363,6723.180982,245032.265625
2391,0,0.175690,0.116009,0.031967,-29666.297778,-155544.814709,9801.226929,69661.180811,-9143.127724,13220.124673,80850.773438
2392,0,0.157083,0.114292,0.012800,-77427.442810,-298463.048047,-19213.821741,203315.971484,-10877.656536,21512.891843,432423.406250
2393,0,0.167221,0.100789,0.025560,-125257.871695,-345132.091046,-38411.159466,182526.906250,-1226.594640,13573.311583,445757.906250
2394,0,0.118261,0.173878,0.080015,-74740.324957,-329610.746484,-9282.260645,184112.538672,-2579.169955,340.426965,373002.312500
2395,0,0.101596,0.166195,0.067268,-35896.418026,-324723.045833,-1497.775136,246873.289062,-188.289529,1277.374784,533971.500000
2396,0,0.098546,0.167239,0.090492,-43738.006622,-311259.097005,-2402.929108,244523.946615,15531.953168,-7464.823412,471262.187500
2397,0,0.108265,0.181865,0.089683,-83268.360143,-303561.992839,6192.734701,250138.070312,-1382.342163,6567.130300,560302.125000
2398,0,0.115283,0.157797,0.063999,-171372.745384,-454951.463778,-85136.856090,196069.768999,-1524.732538,6433.127336,807007.250000
2399,0,0.118261,0.173878,0.060796,-73220.610799,-313133.088976,-4787.422580,175213.884115,126.333069,958.897322,530036.312500
2400,0,0.129229,0.166417,0.089625,-63763.444203,-181775.837536,22072.907271,78749.125133,-6948.069916,-224.578134,373002.312500
2401,0,0.129229,0.166417,0.070406,-58350.078662,-186679.494922,25730.114386,76771.155127,-2577.945926,-3977.847360,373002.312500
2402,0,0.108265,0.181865,0.070463,-89360.072099,-308395.886364,2780.367609,252197.537642,-1536.753743,2424.023069,560302.125000
2403,0,0.102845,0.104136,0.091693,69843.802209,-120006.059946,24013.067528,-33351.953613,733.904973,21649.281128,186069.937500
2404,0,0.098112,0.098196,0.120616,82923.026563,-115472.167578,11851.444092,-18127.627124,10853.074271,10265.717603,278788.718750
2405,0,0.091208,0.091208,0.105707,81803.736182,-116854.195117,4432.950244,-18078.230347,3731.142966,6460.083289,297921.093750
2406,0,0.186279,0.060791,0.126407,-92496.493608,-324625.754616,-15768.603768,182577.648793,-13277.013683,9189.023055,683312.187500
2407,0,0.183835,0.076775,0.123796,-104806.777246,-328605.127344,-1746.982434,183453.762891,-10120.211584,1756.423346,450032.375000
2408,0,0.197318,0.079570,0.121719,-64156.257731,-143023.583659,6955.425681,86667.171936,-6754.707356,525.441086,236240.468750
2409,0,0.202679,0.060992,0.121541,-69063.092642,-156121.035682,256.287027,117936.079102,-10244.055596,979.541732,101999.500000
2410,0,0.183876,0.062209,0.108919,-96356.263086,-381683.658984,-29832.942831,186902.100000,-11825.485133,10129.811194,680405.187500
2411,0,0.176887,0.080420,0.108798,-119028.755878,-366985.318510,-33162.921873,186127.147987,-7860.277568,-3266.014815,436610.687500
2412,0,0.188094,0.096291,0.121858,-48015.289394,-154812.078404,12727.027082,80337.222168,-8595.981672,-6419.820684,191895.000000
2413,0,0.211582,-0.023765,0.123340,18871.552379,-308531.700284,-12653.956099,-123475.900213,1921.143410,-3639.356592,392585.093750
2414,0,0.209565,-0.018450,0.099275,65017.575850,-319040.744318,-18532.801885,-93762.007013,-2605.570923,-3699.237047,392585.093750
2415,0,0.212112,-0.006241,0.109308,91687.897195,-350150.599432,-10562.016740,-23064.936851,3864.249673,2225.593139,357753.968750
2416,0,0.195252,-0.010370,0.115317,150123.029064,-253594.907315,10794.558427,-86117.246532,17338.233865,-11466.427271,379285.531250
2417,0,0.179116,0.112267,0.060061,-34922.107152,-136465.625759,15993.497014,61020.548131,6245.247051,3210.785079,204428.500000
2418,0,0.076829,0.076829,0.028829,75962.348047,-117254.696094,4677.640755,-20592.866913,-429.428601,920.922095,192846.593750
2419,0,0.208389,-0.031704,0.051226,3252.306107,-266506.257812,-12792.934237,-132461.799665,-642.382023,2225.245889,366919.937500
2420,0,0.208389,-0.031704,0.070445,3259.532564,-257614.223958,-9852.767436,-132635.310872,-1623.262073,-919.112742,331186.062500
2421,0,0.209565,-0.018450,0.060836,66177.078058,-313988.192472,-17655.619967,-84354.703480,-6668.530950,1223.934684,397363.750000
2422,0,0.195130,-0.010411,0.073694,199752.294490,-219667.259165,21527.254927,-51343.433894,-444.723590,505.597316,353285.156250
2423,0,0.194079,-0.023597,0.064039,68822.873516,-284111.313101,-14521.844203,-139626.198468,-4219.502892,2518.676278,438763.468750
2424,0,0.211176,-0.013419,0.082881,69289.997823,-327523.648438,-18472.289942,-77110.441243,2612.991246,-1788.072762,431856.781250
2425,0,0.210788,-0.013991,0.042372,59024.440930,-333500.876563,-20881.426636,-70679.982129,-1750.474802,-957.865369,416647.437500
2426,0,0.194421,-0.008373,0.045363,160448.808819,-235159.280349,16046.079323,-68198.074632,-9432.918873,2557.452883,366919.937500
2427,0,0.153320,0.121188,0.073694,-92134.692101,-238442.504958,-19407.785081,234932.379507,4797.100901,-3138.703633,426010.875000
2428,0,0.139332,0.135051,0.089494,-174926.018835,-154012.042448,-11293.653963,203419.588021,2240.542435,-1909.121981,286506.968750
2429,0,0.160607,0.136789,0.083311,-58850.282003,-111030.288350,16208.155994,101584.188739,-2665.972954,-1242.410678,60296.496094
2430,0,0.152239,0.147047,0.070468,-99420.699858,-70696.574485,24054.795504,109129.637964,-1101.032909,-108.889793,201197.078125
2431,0,0.156575,0.114797,0.089694,-93199.869363,-288546.398615,-30186.279918,236304.563920,4284.295216,-7611.071655,735613.875000
2432,0,0.152456,0.146116,0.051650,-105964.522261,-77178.384208,18255.692596,120754.542088,2478.516852,1434.626944,77335.757812
2433,0,0.139854,0.135748,0.064039,-194154.940341,-129432.681197,-9109.269265,216152.533381,-1593.592540,-2106.015554,522424.562500
2434,0,0.153441,0.121228,0.051278,-86857.149680,-240212.554066,-16012.541282,256863.486151,-5803.225023,9367.034264,764085.187500
2435,0,0.168812,0.126297,0.070445,-28704.025503,-139097.962056,14847.921722,102254.926758,3292.321223,-2192.829745,221857.187500
2436,0,0.155400,0.115093,0.031199,-78675.018534,-295074.821940,-25507.635885,241993.344076,-9867.694496,13205.829061,588820.562500
2437,0,0.164398,0.105806,0.051318,-125337.165612,-352378.579928,-53233.048359,184318.493389,-4364.523198,6617.082771,426010.875000
2438,0,0.144992,0.131112,0.026217,-123323.538281,-88144.209473,13021.824524,215400.324219,6851.442767,-909.917349,588820.562500
2439,0,-0.184177,0.104412,0.013186,-50621.678581,-131709.411428,7067.122442,-53824.852702,-5561.916855,5592.702349,168682.109375
2440,0,-0.188585,0.093642,0.031646,-53769.639608,-133209.350911,14551.962712,-73827.252832,-1990.602487,8645.101780,280719.062500
2441,0,-0.168405,0.097427,0.025637,-123455.197266,-362044.506250,-34229.798285,-198301.863281,5473.259473,8952.229120,721192.500000
2442,0,-0.179425,0.110519,0.031967,-40738.222375,-155730.043269,8921.673852,-65270.479718,2695.796323,6890.906961,168682.109375
2443,0,-0.174553,0.089766,0.012162,-95249.718525,-315147.403095,-10857.213117,-167061.916016,-9208.440272,5604.051941,689492.937500
2444,0,-0.195444,0.094576,0.011484,-45905.498318,-44429.523885,19448.438687,-47247.351611,-5708.696858,3082.674228,154049.671875
2445,0,0.130193,0.165592,0.013149,-68102.726767,-228340.254439,8029.468160,89503.551270,3022.864685,8285.651645,219728.812500
2446,0,0.111591,0.160074,0.025562,-154307.839786,-417274.320312,-55631.923514,224159.395508,-14015.900536,19085.363242,400443.093750
2447,0,0.112343,0.165491,0.011533,-73391.510323,-311046.600962,6657.378565,220867.711538,-10730.585867,14200.860258,468733.468750
2448,0,0.124685,0.148046,0.014067,-275282.770433,-411439.639423,-70627.863159,169303.205266,4785.167483,23751.314978,569628.125000
2449,0,0.129443,0.166764,0.031740,-70584.468831,-206404.550781,11732.093394,93514.516642,6358.330369,1728.972445,333212.593750
2450,0,0.130382,0.146247,0.025974,-237587.126953,-263547.082357,-47972.726044,128005.894043,7333.329878,-1095.001851,459473.500000
2451,0,0.144389,0.154835,0.020146,-110577.214584,-89346.847763,16945.831779,69112.654358,14596.978422,7616.590931,259779.281250
2452,0,0.067750,0.000949,0.027280,453279.701705,4127.738051,40910.401445,3642.854864,18072.307492,1359.224634,452194.281250
2453,0,0.077710,-0.000416,0.014207,431407.661458,-4754.320924,8439.935588,8463.684889,3726.258046,3688.618795,388174.625000
2454,0,0.055523,0.204120,0.011839,-452534.396862,-326625.109064,-8179.214178,51708.937156,-3493.517733,33641.350497,618583.312500
2455,0,0.088316,0.000000,0.028829,464251.897727,-1239.629869,14443.487377,3906.635146,1569.148287,1459.663220,492248.187500
2456,0,-0.204991,0.052415,0.013046,-51130.744311,-161288.282001,2810.649466,-127260.166016,-4554.720097,2685.183182,207590.703125
2457,0,-0.198797,0.075052,0.009886,-61975.127116,-148609.954102,9063.807202,-105289.235071,-5462.215503,3670.351994,207590.703125
2458,0,-0.199702,0.070116,0.032024,-57323.478821,-155868.589146,8938.742427,-98338.343807,-5781.550633,3012.728614,117223.507812
2459,0,-0.201610,0.033407,0.011956,-3324.838391,-247759.184659,-9743.660090,-139513.211648,-1777.570758,-2940.728371,443855.531250
2460,0,-0.189209,0.052923,0.011474,-77236.015611,-277227.216146,-6745.704074,-163776.301649,-9430.808860,-8426.079373,403039.625000
2461,0,-0.192810,0.032522,0.025560,12265.774352,-249898.140625,-15508.847553,-153825.560998,151.292095,-22917.150423,389581.531250
2462,0,-0.208970,0.033655,0.032024,-14331.105904,-225617.893750,-2739.584595,-117374.248438,1329.972716,1617.280063,291361.062500
2463,0,-0.204941,0.051344,0.032000,-48782.695825,-173749.234570,3661.521606,-120470.991406,-2772.578110,1284.808437,389581.531250
2464,0,0.040631,0.191267,0.025560,-75185.047729,-106420.280256,48182.848254,-104852.541957,8614.802381,16604.036368,239685.437500
2465,0,0.064289,0.000192,0.115731,425436.717187,-3858.845105,54064.491724,16718.596588,-21347.483789,976.954491,369348.812500
2466,0,0.070222,-0.001412,0.106409,470082.045139,15007.576999,47702.115573,5900.577413,-7180.266032,2602.912584,446978.781250
2467,0,-0.058600,-0.196981,0.012482,-122238.129395,-103399.706689,-26129.758936,-47611.484180,20539.768170,-12993.533154,324604.687500
2468,0,-0.050721,0.199988,0.122276,-301974.137540,-281754.784979,-15899.632113,-20249.414584,-10381.862410,-11386.144709,205427.937500
2469,0,-0.037361,0.196969,0.116765,-163725.776101,-185772.322266,33777.069547,166680.518377,19690.286294,-12514.980069,244792.625000
2470,0,-0.048193,0.187478,0.103667,-8185.569141,-114228.346375,70781.055753,49021.381958,-221.700806,-3546.069992,583439.812500
2471,0,-0.030961,0.191776,0.102340,-118214.517733,-250993.991832,40616.325295,231308.065341,37141.606867,-18494.455677,749073.437500
2472,0,-0.046796,0.205172,0.097343,-390050.095313,-261716.048437,4129.688175,11431.651497,-1741.125005,-9949.273574,545406.250000
2473,0,-0.066897,0.201170,0.118173,-423636.943638,-387581.503348,-29771.027734,-190953.810782,-5091.066410,736.948421,455408.562500
2474,0,-0.049793,0.190647,0.084374,-34794.278587,-100338.510520,84492.538485,53544.611117,-1124.806605,-12503.711531,186397.328125
2475,0,-0.083771,0.171907,0.119606,24549.701303,-221422.569787,16280.160522,-187445.876502,-31350.795964,-12740.093919,441105.937500
2476,0,-0.091939,0.189009,0.121724,-173155.031250,-278141.064063,-779.978979,-289931.627344,-6497.166943,6260.715314,691605.437500
2477,0,-0.070712,0.185171,0.119743,-14694.836807,-201368.666496,35771.518011,-147635.282902,-20989.175142,-808.303353,437307.687500
2478,0,-0.081203,0.177572,0.095844,11758.583489,-215826.477764,28677.796124,-180756.383413,-18248.166307,-10718.971990,538116.937500
2479,0,-0.100397,0.186293,0.102512,-114883.841166,-258005.345052,7577.599813,-247088.287760,273.496493,-4480.925030,532486.125000
2480,0,-0.101272,0.166353,0.107270,-95346.055965,-294759.498197,-17763.172692,-231222.317909,-13836.173782,-21387.958500,493780.500000
2481,0,-0.101402,0.176073,0.122187,-73453.627170,-290633.418403,-4815.453356,-261579.780382,-8205.520686,-10827.015625,531902.562500
2482,0,-0.109412,0.161361,0.121463,-122897.481348,-359685.426563,-27352.378943,-250149.152344,-17837.856606,-24435.318175,533953.625000
2483,0,-0.114059,0.153540,0.105708,-246548.142969,-461647.413281,-98850.749438,-202491.470801,-12598.370931,-8095.581360,224346.015625
2484,0,-0.125318,0.160431,0.114769,-113346.867357,-278349.874249,-5176.554450,-104704.688702,7501.487164,-11570.608106,389060.625000
2485,0,0.105132,0.107022,0.060627,28006.185614,-161288.971875,10558.994238,-68735.492676,4004.194385,-8810.622925,192392.781250
2486,0,0.208253,0.031985,0.031838,-6197.246133,-260520.610491,-10525.574324,135563.944754,-1207.771962,-6195.891962,335178.187500
2487,0,0.190851,0.042229,0.025560,-58855.149707,-328369.267969,-31887.522844,176434.090625,8913.492813,-18385.514893,426758.312500
2488,0,0.037646,-0.000035,0.013889,336779.282813,-401815.438330,13187.733838,4394.769849,31130.538446,-2392.952832,622236.937500
2489,0,0.047645,0.000000,0.028829,411578.032552,-203805.721303,58185.735107,4369.001261,35581.244380,-1416.931620,658658.187500
2490,0,0.018480,-0.008009,0.012032,218424.693714,-569379.678977,-18507.192050,14144.737678,10564.328136,-2067.355324,622236.937500
2491,0,0.195130,-0.005267,0.092913,193571.818872,-235231.939323,18147.971318,-17587.555530,6563.555326,-1004.224178,354180.812500
2492,0,0.194079,-0.023597,0.102478,51432.261086,-279943.800426,-13244.747636,-151114.889205,458.071866,-21526.336553,392585.093750
2493,0,0.200191,0.005948,0.117514,182913.372514,-263030.846591,16636.117382,44092.775399,14662.241905,9722.065472,517560.531250
2494,0,0.194079,-0.023597,0.083258,66803.694946,-282801.813151,-15415.994161,-147358.032227,917.265461,-9814.417180,467928.531250
2495,0,-0.079879,-0.175736,0.012096,190068.361654,-179789.801453,34481.563859,29456.788140,29320.637729,22863.412384,196194.875000
2496,0,-0.092452,-0.174770,0.013942,24927.402419,-303949.551983,8909.999220,230202.333984,19828.202388,22189.094727,476190.187500
2497,0,0.209977,0.006055,0.089836,84610.399333,-327197.547396,-16114.101449,35571.379036,12.640438,1785.605862,354180.812500
2498,0,0.187076,-0.047981,0.122432,-74168.931445,-334009.776562,-15003.995325,-171290.357813,-10775.328888,-18801.869186,472195.718750
2499,0,0.190979,-0.068177,0.121912,-81458.166829,-247172.881348,-3293.015889,-134917.540853,-3268.433329,-3651.428005,150508.687500
2500,0,0.200093,-0.038374,0.122004,-18347.893949,-253931.389063,-7338.621753,-155006.768490,-4668.689903,-11729.436601,379285.531250
2501,0,0.204538,-0.050758,0.108845,-52567.672100,-198049.108474,1615.306303,-128700.920673,-5178.492774,1494.110559,258010.500000
2502,0,0.190851,-0.042229,0.102438,-57002.213942,-331441.304087,-30376.561660,-169790.539062,-6674.468789,-16727.285734,383799.875000
2503,0,0.198308,-0.070070,0.107742,-58549.514502,-149213.032898,16829.958020,-97283.367383,-1298.269427,6515.739027,258010.500000
2504,0,0.185908,-0.060522,0.102438,-90972.644354,-361426.620384,-32067.694647,-169883.264205,-5374.158688,-9372.279759,620979.437500
2505,0,0.172970,-0.105387,0.122130,-80102.242010,-263938.658026,-10729.082525,-128542.515714,-1269.551489,10576.447621,195499.687500
2506,0,0.158779,-0.114032,0.115564,-69070.514348,-300157.835286,-12509.130051,-212172.434896,9307.942741,14516.883461,671623.125000
2507,0,0.179794,-0.111455,0.107843,-38837.789258,-149806.327728,18562.403589,-57883.249170,-3825.512236,8741.725621,414314.718750
2508,0,0.191439,-0.090609,0.108431,-49631.585947,-104024.990685,19862.573505,-52694.969896,-2273.416790,3379.058292,127583.218750
2509,0,-0.080358,-0.199287,0.012056,-235176.029102,-391949.174276,-63585.242737,201651.371077,-2057.034371,50515.323700,324604.687500
2510,0,0.170641,-0.124758,0.119992,-18821.259221,-157226.837972,13244.938138,-80706.032878,-4484.637600,7903.158020,134524.406250
2511,0,-0.033897,0.208653,0.108051,-314574.834546,-311709.767578,38380.045300,143752.679688,-1585.707196,-14766.314246,504804.906250
2512,0,-0.182469,0.067361,0.017606,-94916.416541,-380089.104567,-24916.969755,-180573.875901,-10971.080516,-7115.479210,382843.000000
2513,0,-0.183223,0.066115,0.044780,-85247.267619,-339191.929036,-34936.182587,-163836.521484,-3865.683053,-4215.840591,382843.000000
2514,0,-0.188669,0.051210,0.026254,-75303.088542,-299878.541341,-30605.590983,-154328.731120,-12172.327695,-16322.329941,518874.437500
2515,0,-0.177577,0.081215,0.026543,-103707.724284,-340299.001302,-23288.325734,-177792.833659,-6150.461372,2581.737364,689492.937500
2516,0,-0.135330,-0.143582,0.013753,-169313.793228,-243440.568054,-18297.591637,112878.768524,-17635.513218,-3840.983693,452935.312500
2517,0,-0.189724,0.093455,0.106824,-47365.704669,-111898.473242,19529.574203,-61399.043652,5119.558249,2480.802380,183994.859375
2518,0,-0.202572,0.068484,0.110427,-62009.917969,-98081.880897,13919.124662,-80610.724952,1037.592327,-4966.315672,72008.109375
2519,0,0.193338,-0.023955,0.012514,35420.421905,-293316.904297,-7165.462921,-165971.225260,-6397.354930,29680.085220,383369.562500
2520,0,-0.177728,0.081204,0.083219,-103017.646973,-349126.100260,-41125.421595,-181606.982422,3188.594110,-4002.195348,695883.375000
2521,0,-0.133941,-0.165752,0.012767,-37968.505923,-190085.219993,13944.538913,81333.847013,-21496.380194,5062.347100,415327.125000
2522,0,-0.135554,-0.160763,0.029898,-74027.531115,-228302.416829,9593.423462,79689.119914,-11578.889109,6616.511377,544095.125000
2523,0,-0.177728,0.081204,0.063999,-107056.599316,-355852.163281,-46751.734045,-183915.229687,-212.941777,-1799.686496,430204.781250
2524,0,-0.193958,0.081235,0.060796,-58504.989502,-172541.106641,5621.045300,-97676.441992,-3279.779557,427.179632,196248.312500
2525,0,0.063222,-0.064671,0.088523,50510.546973,-162359.317578,15546.222510,57310.292578,-2601.257159,4566.406404,343600.625000
2526,0,0.077614,-0.077854,0.086526,40875.873389,-160273.485491,13156.227430,60543.811244,-134.175757,567.589782,213692.296875
2527,0,0.049720,-0.051237,0.089789,45886.974684,-157759.457632,33071.174166,63294.385517,-7824.799368,8923.017511,234885.203125
2528,0,0.056850,-0.203622,0.121055,-126975.929194,-103506.194469,-31002.807706,33030.496893,-2889.113204,17111.183849,368340.968750
2529,0,0.079228,-0.197608,0.123985,-263223.859212,-255768.483724,-76941.628703,-163623.097819,36767.670654,-6794.165609,368340.968750
2530,0,0.072159,-0.198055,0.102570,-172995.255920,-253959.952840,-68323.752767,-46802.388997,9743.725146,-19642.307149,215000.000000
2531,0,0.057048,-0.190876,0.123570,-2746.784915,15436.812500,13630.490845,63442.257422,-3140.141005,-2628.286011,172474.656250
2532,0,0.070526,-0.182596,0.108563,96855.991577,-80618.019828,43935.448085,28260.155295,32832.444179,-20281.306676,553081.500000
2533,0,0.038339,-0.196340,0.122058,-84287.491650,-81436.577026,-653.194967,121927.956950,-29606.804077,9857.068999,99352.664062
2534,0,0.052614,-0.204384,0.103099,-84716.641581,-33570.676463,-13571.459564,69592.148519,-12162.892593,6259.522475,273973.468750
2535,0,0.029956,-0.209520,0.107843,-85197.356016,-235447.730664,-52829.424577,117886.357552,-11916.053857,26475.835127,262455.468750
2536,0,0.110571,-0.182854,0.122417,-51430.642954,-280502.431791,-8100.657039,-235871.182692,-4893.293814,-36172.913631,354049.000000
2537,0,0.051391,-0.188167,0.106554,71291.665348,45056.051381,68304.565208,97642.388317,-14634.792969,-6230.378640,215000.000000
2538,0,0.172403,-0.121012,0.015414,-32306.015370,-169661.953480,5207.618109,-92504.572377,3750.016729,-8125.162259,233305.734375
2539,0,0.153546,-0.130468,0.012744,-62262.044078,-160644.338778,7459.987510,-214659.554688,-4197.714089,-425.074552,233305.734375
2540,0,0.188168,-0.099220,0.012642,-56121.707825,-152973.060140,8955.857066,-64317.708903,5092.814131,-4552.859751,174347.437500
2541,0,0.181043,-0.109592,0.030425,-55784.332088,-147525.820876,11205.238666,-60306.967661,4934.422246,-5919.230838,193401.281250
2542,0,0.153681,-0.112703,0.011749,-72453.637397,-356789.305556,-26147.937873,-235054.828125,-7118.867018,-24251.376804,463848.468750
2543,0,0.012900,0.011685,0.012068,245722.968331,-568918.305804,17791.509260,22512.701752,8703.169861,-2081.942165,943272.562500
2544,0,-0.003976,0.028184,0.050510,165530.339093,-769077.423077,-25593.758770,-14043.602764,3610.123307,-15316.525835,789188.375000
2545,0,-0.000000,0.047645,0.048049,-14717.019670,-1324604.548295,-155013.035445,-3765.177379,-135.212864,-28188.478760,1264575.875000
2546,0,-0.000000,0.047645,0.067268,19655.627890,-1242801.089286,-131297.713797,538.048410,1376.481480,6471.296825,1393207.500000
2547,0,-0.003976,0.028184,0.031134,193298.488086,-694138.292188,621.280847,-28879.513379,3143.382361,-10437.583443,694617.500000
2548,0,-0.190779,-0.038786,0.015457,-48317.310029,-261047.556818,-17353.807118,170656.263849,-5086.648096,19185.279713,345964.937500
2549,0,-0.185680,-0.050324,0.010326,-74946.799792,-325746.192969,-17655.805869,166488.108984,-7190.909906,16588.322479,367591.468750
2550,0,-0.086565,-0.191741,0.118925,-178620.313878,-455711.730469,-71803.036418,289936.572800,512.570160,-65161.497050,695387.375000
2551,0,-0.080423,-0.176769,0.108919,152214.949079,-222474.291713,54348.482736,51372.170340,-21081.209638,-15242.238028,269278.187500
2552,0,-0.071674,-0.198284,0.115626,-132884.553990,-324923.456696,-67039.366769,29165.715977,-6407.487030,-17247.696812,208613.171875
2553,0,-0.089560,-0.191811,0.102510,-261372.523763,-589792.155599,-141339.436849,345694.699544,-12938.374929,7647.058431,695387.375000
2554,0,-0.049002,-0.050430,0.085441,59917.410238,-149473.102865,26270.567828,-51342.555664,2975.986178,7475.829052,209452.343750
2555,0,-0.048070,-0.048070,0.105707,59317.345170,-153140.216264,25212.752448,-52482.385476,1871.893003,13335.138574,366179.000000
2556,0,-0.062449,-0.062449,0.105707,53861.646484,-149940.156250,9413.299383,-49034.888346,-2767.378443,6580.691269,216490.828125
2557,0,-0.062449,-0.062449,0.086488,54609.201349,-146570.810547,13193.596380,-47737.961825,-390.391695,3663.431480,209452.343750
2558,0,-0.062449,-0.062449,0.067268,47212.293344,-153211.252254,13589.774703,-51865.124249,-186.642109,1956.795659,211596.000000
2559,0,0.169700,0.000063,0.086449,412028.772017,-23380.376742,85845.229004,780.735973,19666.368448,956.519848,426536.750000
2560,0,-0.035552,-0.038408,0.084394,31639.756429,-202151.318034,31284.269180,-7098.827555,14160.090149,2151.372935,260190.281250
2561,0,-0.050258,-0.048110,0.068856,43971.379354,-155592.730143,28752.716230,-63670.376628,1841.567347,-512.261676,260190.281250
2562,0,-0.198813,-0.069785,0.118071,-61185.560724,-158113.625533,8332.772994,105475.799006,4922.012129,3174.671564,230572.890625
2563,0,-0.186105,-0.078659,0.121536,-88874.030895,-233248.223899,2651.522464,134998.602983,13367.578258,804.746127,471123.812500
2564,0,-0.178366,-0.079025,0.107904,-117343.884390,-347381.038762,-28453.495474,181872.238281,9394.359413,1134.819057,682275.187500
2565,0,-0.186879,-0.054337,0.122471,-70603.942649,-331903.326705,-13920.975431,163948.593750,8841.456589,-16698.424799,415992.593750
2566,0,-0.171737,-0.085943,0.122649,-117772.720312,-382450.549219,-21428.560696,179465.543750,15086.494373,2018.994403,402814.375000
2567,0,-0.189963,-0.091555,0.116615,-53037.452703,-126145.131673,10797.251187,62325.325706,9686.279716,11132.383539,110866.835938
2568,0,-0.193940,-0.082813,0.104590,-64389.164773,-120285.551758,18246.534690,75067.431618,4816.198517,4537.987219,97494.742188
2569,0,-0.185874,-0.057233,0.108500,-76134.586989,-334871.934796,-30605.732624,161261.633113,11807.266409,-6483.345046,401653.375000
2570,0,-0.205959,0.052607,0.125171,-59125.405850,-145683.304155,6709.507862,-118349.655007,6884.553454,-5214.641174,370933.125000
2571,0,-0.189199,0.050853,0.110024,-72395.606999,-287842.334896,-22257.753530,-153639.358333,4733.543859,10545.606129,370933.125000
2572,0,-0.192810,0.032522,0.102438,-5232.667358,-258761.094531,-22018.276498,-157322.367188,3114.982826,20106.916260,457278.906250
2573,0,0.149323,0.000000,0.067268,472067.396307,3419.205633,50838.780096,3778.008933,-2155.979613,683.571904,484829.156250
2574,0,-0.089681,0.003922,0.047426,455581.843750,28.170605,13766.241637,-4259.688735,-5208.321141,-717.051871,452593.343750
2575,0,-0.082098,-0.004914,0.036395,451873.710938,3019.715228,20789.333593,-5427.798230,-7611.012367,540.921438,443003.468750
2576,0,-0.091417,0.003948,0.017842,417412.601562,-344.942691,5125.258605,-3795.062238,-3150.927778,-2752.211540,427601.718750
2577,0,-0.064917,0.000865,0.044644,440321.233398,12915.837399,63421.720413,-5378.848000,-17636.699863,-844.676666,427305.718750
2578,0,-0.108652,0.000000,0.048049,462561.741477,295.058295,5486.298600,-3963.051314,1576.147038,65.083442,452593.343750
2579,0,-0.109295,-0.000524,0.029246,441711.763221,56.024433,1166.547148,-4121.112570,-142.155323,-582.886443,443003.468750
2580,0,-0.042696,-0.188473,0.012960,49510.765663,-6474.107778,42275.645639,-139608.295823,-17128.877348,7074.584393,252185.765625
2581,0,-0.047349,-0.204883,0.025173,-106085.846598,-78923.223957,-23967.039869,-96809.204020,-9654.434013,-17893.540100,310889.406250
2582,0,0.209131,0.018677,0.042579,52350.966431,-314951.291016,-17689.324463,98322.938721,-5701.298393,-8119.452244,433916.468750
2583,0,-0.205209,-0.052311,0.025627,-53402.965388,-173762.009766,5178.804954,122461.910511,-4304.370329,1313.841352,143808.140625
2584,0,0.209323,0.031381,0.051249,7159.190973,-266411.222301,-9879.812863,132458.305043,490.177765,-4588.553775,340069.906250
2585,0,0.210152,0.018502,0.064091,53460.725992,-326645.198317,-22360.528862,80238.726863,2044.784510,-301.831426,421194.687500
2586,0,0.210741,0.005196,0.051226,79459.747640,-333348.410156,-18945.946676,22954.838135,2082.570912,-2670.748136,421194.687500
2587,0,-0.116972,0.165900,0.018729,-79598.396858,-296518.154447,411.828557,-188264.435397,3067.868812,8259.501859,535849.125000
2588,0,-0.123400,0.151139,0.014001,-234597.332031,-339858.058594,-52847.706558,-139437.833984,-8428.554142,12668.495871,830229.000000
2589,0,-0.128987,0.166848,0.032006,-92234.800528,-175333.156212,11497.582529,-76668.825195,-7066.505003,4888.971514,409394.031250
2590,0,-0.141395,0.147987,0.012973,-149828.594946,-81087.502051,7157.981152,-110526.136279,-7423.099182,1189.919389,70747.273438
2591,0,-0.122520,0.152348,0.035255,-235182.736654,-385944.837240,-80066.522237,-169501.204549,5039.699748,7951.074117,409394.031250
2592,0,0.201136,0.000604,0.011318,124185.129720,-319212.223958,-10448.542491,-5388.751343,-8827.934092,254.697717,428979.437500
2593,0,0.194700,-0.009792,0.019663,187143.186343,-231340.265325,17376.604410,-57811.028471,-16056.088614,8253.135221,306201.250000
2594,0,0.210230,-0.020489,0.026436,35536.127309,-312457.235417,-10762.890686,-98125.052214,-1813.797941,674.538470,414552.937500
2595,0,0.128988,0.000000,0.048049,479775.950284,-494.517348,9029.004534,3136.441376,-4961.559683,811.371035,478845.875000
2596,0,0.168855,0.127635,0.044849,-35132.806305,-137345.336731,15608.243500,95721.159098,-1529.913190,3315.567190,207948.375000
2597,0,0.192430,0.087402,0.050427,-50369.789836,-107987.287771,21067.535197,54133.403483,3615.292036,2531.404271,138305.296875
2598,0,0.169700,0.000063,0.067307,407272.259615,-33818.692660,83148.981370,1208.002592,3391.208567,2845.016072,354304.718750
2599,0,-0.210412,0.011684,0.012641,66705.496249,-321612.681818,-10865.976074,-36048.059537,3065.606773,1208.529446,405047.250000
2600,0,-0.122130,-0.172876,0.026419,-54062.485815,-278563.599609,16319.926187,172894.263281,-12839.567273,10403.864282,274547.656250
2601,0,-0.106586,-0.183143,0.024926,-89113.438843,-353257.900391,398.204132,302534.212240,-3973.150368,17071.849251,483246.437500
2602,0,-0.112421,-0.158904,0.026600,-65971.526611,-418480.244591,-22646.996713,203256.999249,-1241.238173,1456.136576,500275.562500
2603,0,0.194178,0.007652,0.034812,176455.224447,-241039.584961,15698.825239,39329.615967,-12162.686101,-6211.422613,452230.718750
2604,0,0.002265,-0.044501,0.012610,31465.895050,-1168489.026042,-65500.934387,-1654.260091,3431.243034,56184.540410,1062876.625000
2605,0,0.003335,-0.068937,0.009440,-3987.263004,-1200647.659722,-23644.381755,-8753.274902,-2987.386698,22061.209730,1234372.875000
2606,0,0.024713,0.193245,0.048020,-96759.154823,-361254.944636,28846.918912,-243663.173077,14169.834588,25409.058481,809249.750000
2607,0,0.002561,0.210650,0.044839,-129968.978365,-424495.289663,62879.960435,-38504.641839,-2481.876193,3503.066298,465094.031250
2608,0,0.007591,0.195091,0.051119,-95732.891846,-627387.938616,-17473.900460,-52689.855658,-780.994440,27152.899540,861998.750000
2609,0,0.015228,0.209263,0.059696,-163278.517008,-388666.934896,71764.121195,-98751.294352,-1630.145155,9066.427948,453831.968750
2610,0,0.022654,0.194643,0.064201,-92859.004333,-373470.899902,37262.960286,-240462.720703,-107.001605,3231.279587,379843.781250
2611,0,0.041824,0.190230,0.067235,-59635.802171,-91700.585787,96369.631310,-103664.197416,-1314.427647,-5164.157339,379843.781250
2612,0,0.028565,0.208975,0.051012,-279452.794271,-277411.519389,54906.630473,-130274.418945,-6779.538617,10005.177816,469156.250000
2613,0,0.008708,0.195234,0.032059,-105763.087911,-639594.386068,-23882.079651,-75284.561874,2245.452972,43674.992533,858765.937500
2614,0,-0.210380,0.015152,0.030423,49554.434283,-298032.819754,-14536.211548,-83148.851388,3179.807404,-1559.669024,333809.968750
2615,0,-0.191885,0.029947,0.044837,4987.977760,-255388.954928,-17326.827599,-145583.256611,2164.904628,-15196.292157,359279.843750
2616,0,-0.209039,0.033229,0.051198,3963.927413,-255824.451705,-12986.930997,-108496.267578,2742.569735,1070.612707,359279.843750
2617,0,-0.195179,0.007047,0.019220,147751.233419,-234070.625000,1591.840734,-57035.013245,17412.144470,-3944.442764,373779.812500
2618,0,-0.211692,-0.002357,0.050234,59247.066081,-329088.296007,-22356.045519,22370.073785,-1341.334657,2774.172942,334972.593750
2619,0,-0.195126,0.005786,0.045842,159825.507263,-217496.086670,14738.100601,-28688.457010,4224.054672,-2745.027687,223274.687500
2620,0,-0.115466,-0.175078,0.066828,-47349.131696,-344246.935826,-2237.946006,237746.988281,2871.351510,4593.706349,577262.000000
2621,0,-0.129487,-0.166022,0.073445,-69546.687446,-269748.514323,10366.995232,100808.596137,6328.288818,16636.956289,470187.843750
2622,0,-0.125178,-0.169852,0.087708,-51777.454834,-279437.694931,8124.660383,154141.086304,3093.815956,-8249.162570,473724.125000
2623,0,-0.098062,-0.167466,0.051352,66069.028975,-319220.199574,29411.670921,228539.238991,9051.622989,5549.375067,480309.406250
2624,0,-0.098087,-0.167428,0.070473,61265.811345,-318619.474284,31827.785319,228376.843099,-3534.777313,-2109.032939,499860.531250
2625,0,-0.126491,-0.169767,0.048579,-63128.584355,-244624.071638,21103.448050,127006.970075,-4452.035250,1038.478128,178799.531250
2626,0,-0.106358,-0.181556,0.082610,-139920.408887,-352041.653125,-37803.451465,330396.703906,1392.782645,1089.903802,698324.250000
2627,0,-0.126765,-0.154184,0.122088,-140382.342718,-324304.179332,-28759.429921,68696.366832,27123.253448,-592.245547,228411.187500
2628,0,-0.138054,-0.159111,0.101720,-86232.621233,-185190.465751,14306.775984,79141.049456,14167.899811,-5733.468070,410523.718750
2629,0,-0.114522,-0.157607,0.110521,-59594.680714,-432066.741268,-21285.953699,208668.038143,2910.676682,-6723.204606,410523.718750
2630,0,-0.123201,-0.172106,0.117342,-54354.440628,-250639.841471,7391.028076,149491.176270,17241.414518,-8962.409723,473724.125000
2631,0,-0.131888,-0.142910,0.109010,-218102.703613,-242176.195613,-31392.321101,125311.817946,18769.914697,-5940.405184,392462.656250
2632,0,-0.137243,-0.159201,0.119564,-97201.194141,-145168.467969,2212.795416,70923.429199,21003.488953,-4338.936208,130946.648438
2633,0,-0.146969,-0.140517,0.121728,-104334.449666,-112795.436076,10602.215205,127959.356689,10824.269542,2037.966494,338535.375000
2634,0,-0.181879,-0.068028,0.044444,-83196.572604,-341818.844050,-31243.972525,160960.224459,-4687.462666,986.751312,389491.906250
2635,0,-0.188542,-0.051636,0.051171,-76453.644694,-321759.820964,-40112.380046,151847.178060,-5425.518344,4713.399801,389690.250000
2636,0,-0.199702,-0.070116,0.064073,-45153.653537,-147677.077415,17565.365412,86304.379942,-286.545789,-3362.515296,81498.343750
2637,0,-0.188717,-0.051026,0.032098,-75359.538385,-318309.711589,-29548.147812,152499.965169,-5915.554094,11784.951635,389491.906250
2638,0,0.178059,-0.083893,0.123332,-106306.477450,-348225.822443,-10263.750750,-172089.392223,-8953.286707,6124.665450,773173.250000
2639,0,0.173944,-0.086263,0.102488,-118529.445312,-339086.662109,-33118.582132,-163677.451800,-3347.670471,2465.997197,414314.718750
2640,0,-0.000992,0.003266,0.014060,250074.750000,-635228.618750,4940.575488,9121.329041,14339.784650,-4545.832697,790253.500000
2641,0,-0.006814,-0.018704,0.012440,221947.281550,-620154.070913,4349.170373,39550.908992,-4577.067718,-3547.479438,892297.312500
2642,0,0.001870,0.187461,0.073717,-123931.168983,-731969.052885,-51585.350295,-12238.604887,1414.242810,1031.021869,606659.375000
2643,0,0.000063,0.169700,0.067230,-145152.813858,-1278185.703125,-200166.399609,-7075.696411,3232.573400,1360.328992,1221514.125000
2644,0,0.002019,0.210091,0.070645,-118322.304932,-470400.148438,67179.667979,-23006.697876,-2910.826958,3298.775904,595573.687500
2645,0,-0.011870,0.196641,0.053192,-116065.626758,-522759.195312,14407.489893,118664.977832,-8245.095087,13920.260492,465094.031250
2646,0,-0.164830,-0.001254,0.026682,420160.947443,-1806.456454,61915.689627,-364.868647,26837.746582,369.843933,448849.187500
2647,0,-0.169843,0.000615,0.047475,403759.197443,-16719.818481,79865.485263,-3165.113592,16240.217374,-1028.901184,409153.781250
2648,0,-0.154164,-0.144931,0.103131,-85074.775635,-79927.097468,20824.687946,85721.039992,18244.791411,-1819.482011,221550.078125
2649,0,0.120667,-0.165050,0.121342,-15153.233398,-351744.479167,-3790.962280,-166557.351095,-11555.838694,-14076.658012,298444.156250
2650,0,0.103691,-0.162275,0.122360,83528.909551,-305548.786222,8030.768632,-165040.411754,11957.945935,-10495.365212,331362.125000
2651,0,0.101722,-0.166196,0.109555,104977.867269,-284587.731445,47583.012512,-178679.069661,7400.442078,-28439.289398,346010.968750
2652,0,0.115474,-0.158007,0.108672,-70617.786710,-497714.865767,-37395.387207,-193059.906561,-2181.647983,-20454.375677,735481.062500
2653,0,0.129229,-0.166417,0.102570,-51734.296542,-305971.931463,9269.303367,-144042.958097,-18042.401511,-25365.351274,407496.468750
2654,0,0.120703,-0.150930,0.121543,-130310.956360,-450739.168837,-39618.582967,-131470.071533,-13583.452689,6375.563883,439934.281250
2655,0,0.130502,-0.147548,0.109735,-165602.731242,-341618.109701,-32299.007426,-72674.610402,-20285.469269,-21389.874318,294607.500000
2656,0,0.106841,-0.179295,0.102549,-64133.970833,-429663.154687,-18264.004924,-270192.679688,-10132.655151,-58638.352832,784019.062500
2657,0,-0.000879,-0.009379,0.025262,215827.649858,-589337.455966,3474.453924,4923.336284,3835.179710,-130.617778,718510.125000
2658,0,0.033690,0.033690,0.048049,60723.067830,-277211.221029,21225.742432,42772.267660,15278.302508,-3603.272125,597755.812500
2659,0,-0.006151,0.026980,0.012750,221882.108398,-762013.704102,2761.381737,-10529.061279,4682.069206,-33840.848423,1241101.875000
2660,0,-0.018412,0.009905,0.025846,174250.766199,-551721.207261,2129.894050,-52816.171760,-13843.378398,-2485.431917,663409.750000
2661,0,0.114424,0.170003,0.121584,-63303.320901,-328903.065341,-7319.294434,205092.815696,4405.389854,-6426.292951,405481.250000
2662,0,0.115589,0.157247,0.103167,-174234.659091,-444604.260653,-67996.077692,223615.927734,16431.275890,-15912.108704,600871.937500
2663,0,0.121685,0.153384,0.121847,-222662.622628,-360007.538016,-41844.000235,166929.634521,-210.327360,-15991.815194,794165.812500
2664,0,0.103843,0.163256,0.115803,-64221.065195,-319641.230168,-127.556972,242793.548678,29182.589919,-16263.734309,523125.031250
2665,0,0.089799,0.171540,0.123526,19186.268413,-288528.169833,8522.360607,225094.960582,30179.182534,-5541.493380,304438.281250
2666,0,0.129229,0.166417,0.108845,-76744.725985,-215789.205256,13061.844371,87566.416238,-4153.632000,2967.087365,202751.859375
2667,0,0.118309,0.173404,0.041320,-73129.621002,-298981.067383,2375.185051,173804.851074,-262.846588,6386.875006,389259.531250
2668,0,0.108387,0.181931,0.051251,-91949.505753,-310589.799479,2445.007421,243898.657552,-1846.025752,-2170.988949,693623.437500
2669,0,0.101596,0.166195,0.038439,-46397.866042,-301289.097356,-6431.164736,247574.365986,-19111.917652,2896.831095,527818.625000
2670,0,0.108624,0.181405,0.031769,-97684.877055,-279707.821940,7189.615540,232493.261068,1211.927884,-7123.900625,333212.593750
2671,0,0.115283,0.157797,0.044780,-158010.145583,-434732.162260,-74407.185707,211027.379056,-6401.699196,11064.220620,509990.156250
2672,0,0.129229,0.166417,0.051186,-61634.950284,-198862.697443,23502.905961,84982.233221,5221.113317,-1433.438427,389259.531250
2673,0,0.149391,0.145217,0.123869,-125991.532640,-82935.055110,12487.658574,125678.233211,-8161.708477,-4732.566640,361401.187500
2674,0,0.131437,0.130877,0.109280,-234833.586470,-163347.511186,-18302.730644,215759.681507,4710.946191,4788.523981,500073.531250
2675,0,0.130232,0.146817,0.103417,-226559.293945,-262286.585124,-42873.521708,109310.062988,-5627.595778,38.589041,361401.187500
2676,0,0.120900,0.123900,0.121987,-88721.198730,-166547.534017,-150.448525,136768.555990,3288.586533,28523.320321,588234.062500
2677,0,0.005387,0.013177,0.120298,229072.197917,-666976.153646,-16811.556905,19661.400716,-5073.585091,9431.176483,872685.187500
2678,0,-0.018983,0.017809,0.094067,121133.231697,-520554.113281,-15109.580048,-71049.746668,17335.523464,8992.446499,339804.187500
2679,0,-0.012678,0.020435,0.120994,188736.206731,-588227.580529,-870.253643,-75962.919997,17631.609098,15215.511090,851558.812500
2680,0,-0.158829,0.113994,0.102438,-73883.454457,-279776.234020,-25922.252630,-193154.323153,-7948.224806,-5801.977692,211657.031250
2681,0,-0.163193,0.113281,0.123501,-60885.312391,-244439.129774,-5494.788249,-133708.562934,-1780.102353,-20623.965766,256541.500000
2682,0,-0.153120,0.132390,0.118914,-81385.148019,-154476.932077,-1830.800807,-193943.483398,-8526.830839,-4501.781541,268062.375000
2683,0,-0.167780,0.128818,0.105695,-33100.523381,-113684.238582,7935.647056,-80391.483436,2120.433961,-6755.111366,211657.031250
2684,0,-0.148845,0.147608,0.099807,-119584.149264,-61813.675687,14768.993314,-90132.349130,7764.793322,-1207.531427,203968.828125
2685,0,-0.132465,0.143605,0.108937,-246875.880859,-218579.317139,-40477.296611,-137740.393107,2261.098775,-999.549998,169326.046875
2686,0,-0.143462,0.146905,0.121985,-136665.673665,-90795.457601,-864.193090,-92098.017314,14024.385305,-7774.413874,268062.375000
2687,0,0.094968,-0.169403,0.122690,139337.687771,-225770.823351,18557.358141,-126335.849230,24475.107503,-35098.712348,366356.531250
2688,0,0.025932,0.015839,0.122539,162788.783657,-516311.267127,-21861.459543,44136.070561,-23922.582087,9612.862489,538786.500000
2689,0,0.009949,-0.007072,0.120606,222601.966647,-595912.608173,-8766.278262,9772.052967,-5811.361633,-3374.569581,850393.937500
2690,0,-0.007630,-0.004414,0.105484,196379.085337,-583485.312500,-6532.778067,-8298.256872,6709.997891,-258.011186,695870.875000
2691,0,0.002307,-0.037699,0.028094,150907.180127,-825080.893750,-31611.172705,-11676.878125,682.206485,24926.041150,1062876.625000
2692,0,-0.001925,-0.024250,0.035757,165978.962500,-635735.110417,-10425.051139,16078.352083,-6806.286568,12045.575918,718510.125000
2693,0,-0.019798,-0.010911,0.025477,161746.779948,-518280.107639,-1507.903653,775.954156,-13425.915719,2231.464225,645390.437500
2694,0,-0.013528,0.000821,0.012115,222488.577060,-603178.225852,-5424.456787,-18356.463912,-3737.376744,-10816.284103,645390.437500
2695,0,-0.179425,0.110519,0.051186,-38268.813802,-140433.145996,12757.004374,-63352.865641,2479.586368,3186.559487,72588.890625
2696,0,-0.168278,0.097599,0.063999,-117615.373884,-335267.519810,-50737.481724,-182775.248884,1738.146705,-292.632445,430204.781250
2697,0,-0.169079,0.098057,0.044780,-121044.178711,-338950.107096,-44546.303233,-184642.226237,2439.764628,6117.010793,721192.500000
2698,0,-0.188814,0.093462,0.051186,-45299.940058,-134402.836293,18163.758944,-71404.323020,-548.690670,2914.152015,196248.312500
2699,0,-0.177728,0.081204,0.044780,-108739.247640,-348990.444661,-41367.302032,-181291.191081,-2828.322930,-960.852937,430204.781250
2700,0,-0.176444,-0.080949,0.031700,-108442.573153,-363640.427557,-31338.877630,176244.143466,-2526.187107,-3581.281652,407999.718750
2701,0,-0.177728,-0.081204,0.051318,-103253.879883,-371178.377279,-42192.528473,174814.846354,-4192.609432,-5922.354134,176188.687500
2702,0,-0.188814,-0.093462,0.064131,-52847.150691,-159174.753756,11792.782933,76614.171349,-3148.843703,-5237.812955,138273.546875
2703,0,0.149323,0.000000,0.086488,466636.491071,2535.399349,43915.083688,4925.581039,13405.975943,657.361526,469401.156250
2704,0,-0.108652,0.000000,0.067268,467748.764423,-184.409223,9063.553805,-3826.620469,858.430023,-91.643895,469959.687500
2705,0,0.128988,0.000000,0.067268,487530.061384,-152.794186,17557.361136,3791.259654,61.185491,790.333644,458010.562500
2706,0,0.108652,0.000000,0.067268,492395.626302,15.251545,8708.237943,3860.087268,-1020.686254,599.598221,488346.093750
2707,0,0.108652,0.000000,0.048049,485246.723011,-70.007097,4642.972722,3505.770583,-573.650416,611.059656,478845.875000
2708,0,0.068129,-0.182173,0.024568,92935.152588,-61188.860425,50199.273682,45506.819231,-28019.889302,17842.909851,156642.500000
2709,0,-0.009672,0.211490,0.056554,-157907.166548,-402911.852983,94132.027455,54320.368786,-10765.973209,7979.985726,492028.875000
2710,0,0.028605,0.208737,0.071125,-283113.219401,-263016.291748,61076.527913,-136524.670695,-2231.081713,917.442724,446750.250000
2711,0,0.108265,0.181865,0.108902,-86016.770467,-274015.068229,-345.136981,243767.697396,4807.493298,7949.275343,399670.406250
2712,0,0.169735,0.000145,0.049031,419664.020833,-23801.859128,79304.535970,756.757853,-17045.313782,727.500498,468949.343750
2713,0,0.150014,-0.000528,0.043701,469253.275670,512.527751,36577.990904,2717.367994,-12896.321880,929.317041,458010.562500
2714,0,0.117500,0.173488,0.099146,-67697.404102,-306727.659375,-3004.377979,188527.685156,-1644.001523,-4665.637047,600871.937500
2715,0,0.134539,0.151090,0.067224,-167368.105399,-202507.866002,-18672.594199,80103.557303,-2610.141974,-1813.834603,94945.531250
2716,0,0.130140,0.145982,0.051278,-229611.838672,-277054.017969,-56256.884509,100318.969238,1679.609171,3248.502477,419411.281250
2717,0,0.115600,0.157715,0.083730,-161425.354567,-431715.033954,-72184.187556,188724.424429,54.808124,-9552.799470,373002.312500
2718,0,-0.183223,0.066115,0.063999,-86334.727434,-338323.118304,-40009.523621,-167955.695871,-717.226964,-1846.123150,371370.718750
2719,0,-0.183223,0.066115,0.083219,-84027.215444,-338077.747721,-33363.868245,-165594.703451,679.820957,1102.757004,365848.875000
2720,0,-0.187981,0.049497,0.044829,-75609.536843,-309170.530540,-35473.658336,-153971.128551,-2349.470976,-8509.538165,371370.718750
2721,0,-0.029803,-0.001747,0.071390,176634.862279,-489493.066406,-23501.080851,-19498.659739,4154.977118,-68.572804,640414.687500
2722,0,-0.025800,-0.001943,0.091754,181249.440033,-497749.805804,-22090.681580,-16931.598256,18628.814333,640.462088,640414.687500
2723,0,-0.033690,0.033690,0.086488,62331.523615,-236741.867188,30375.157227,-48290.889382,11324.185486,-5316.290849,339804.187500
2724,0,-0.033942,0.034019,0.106096,76140.479793,-241534.688101,20703.817345,-33677.804650,22573.248099,-5471.858835,594733.375000
2725,0,0.002093,0.043589,0.028064,44669.401799,-1188460.834135,-113829.682617,7242.409513,4792.668929,-50007.006836,1397113.000000
2726,0,-0.000000,0.067981,0.028829,-10526.084707,-1382276.098958,-62547.186523,-4598.666409,296.557796,-25768.710274,1400333.500000
2727,0,-0.156164,-0.141752,0.064091,-81306.832468,-96854.662034,27937.790659,112334.852163,-437.276805,-4707.844600,254955.375000
2728,0,-0.141941,-0.156448,0.067507,-91967.372579,-150567.397664,29702.387909,61289.618937,-1680.090821,-2444.810588,301858.437500
2729,0,-0.148082,-0.150207,0.088473,-92629.795858,-119088.547811,21353.242452,86492.477824,11995.483368,-1089.711263,215904.265625
2730,0,-0.020266,0.022749,0.050396,93649.874412,-479785.998580,-10546.083208,-98099.303267,-11966.755858,-9008.753397,423893.750000
2731,0,0.137771,-0.138014,0.066835,-179405.839024,-213313.523438,-186.167393,-179437.256173,-3798.831142,5170.541587,446108.375000
2732,0,0.144159,-0.153862,0.064091,-114595.379506,-157891.955256,36920.583097,-82466.603604,-4958.422220,3840.905606,231684.984375
2733,0,0.159212,-0.139447,0.068272,-59305.673745,-113271.700383,42065.241356,-106324.210487,564.565242,1079.838975,231684.984375
2734,0,0.152013,-0.146409,0.089267,-100397.678224,-113148.474406,32499.553248,-107055.136678,-9486.218669,-7287.852076,333958.687500
2735,0,0.130140,-0.145981,0.089717,-200381.833609,-312256.265925,-30760.601046,-115100.767015,-7693.667405,-9910.094670,294607.500000
2736,0,0.121526,-0.154947,0.064732,-99997.870540,-461740.107812,-25692.075472,-174513.800293,-797.909777,-637.804676,651513.562500
2737,0,0.130917,-0.145843,0.050060,-210441.324219,-312812.646647,-33895.572525,-125226.375509,1000.489115,21266.384679,626870.937500
2738,0,0.119952,-0.120040,0.067230,-94507.809619,-248371.341016,11594.980640,-39397.335938,2205.174109,2180.072847,869007.687500
2739,0,0.090117,0.190512,0.102570,-219128.236417,-345418.985440,-34099.832209,271455.773438,7133.277274,26700.130904,487658.781250
2740,0,0.087909,0.174594,0.089757,33220.916545,-256118.120443,33801.950333,178249.002452,19984.285703,6113.665619,333039.062500
2741,0,-0.191110,0.075622,0.121517,-71823.079651,-145869.745443,4999.840032,-92545.985677,11005.879674,-5517.206507,263749.312500
2742,0,-0.070693,0.195132,0.012762,-286281.480054,-291357.784766,-23743.686182,-207473.644275,27558.201190,-4290.854205,452439.812500
2743,0,-0.071685,0.198574,0.025977,-404320.239258,-333959.319824,-53733.364929,-176315.031006,-1877.984100,-7933.417809,488417.906250
2744,0,-0.179942,0.098648,0.123141,-83607.400729,-222823.604267,-7241.530255,-116067.276593,3991.341797,-8396.223896,439053.250000
2745,0,-0.183222,0.068945,0.116157,-88097.375826,-336328.224159,-20856.090191,-165978.035907,6089.640875,2025.429231,545075.562500
2746,0,0.036637,0.002711,0.121553,308954.891323,-463545.462054,-6962.889624,-9017.287249,-51608.604632,5780.240391,729082.437500
2747,0,0.029347,0.001997,0.109248,187961.598438,-524853.392188,-35736.379388,15339.688531,-18762.849280,-3064.696001,538786.500000
2748,0,-0.056728,0.194201,0.018608,-188234.162464,-230346.205922,9275.600808,-23347.995444,23003.433416,31455.244723,202734.203125
2749,0,-0.049805,0.208059,0.012239,-499898.423828,-397366.625488,-4832.906067,-15234.075049,19680.899002,29600.661987,629106.875000
2750,0,-0.084199,0.176421,0.019369,-6287.782358,-201466.211163,20929.299157,-214006.596154,29146.946665,74.616037,652866.812500
2751,0,0.201658,0.056138,0.093509,-57411.150768,-200277.464844,-180.541182,123319.558239,699.625094,805.329559,301752.375000
2752,0,0.189370,0.047789,0.108977,-75226.721529,-317012.037861,-21183.919347,170161.804688,-5196.013984,18323.960407,408645.687500
2753,0,0.199203,0.070550,0.106533,-62521.219238,-148043.113774,10071.253206,89197.762974,-4367.840133,-3433.768794,101999.500000
2754,0,0.184045,0.061998,0.089770,-97652.464134,-383784.799006,-42564.671231,188883.437500,-5280.782145,4243.206313,450822.406250
2755,0,0.190748,0.042165,0.067146,-50271.199956,-322449.991536,-40091.988075,169044.139323,-1472.434698,772.337413,400220.656250
2756,0,0.190775,0.042329,0.084087,-57862.033372,-319130.891827,-36967.953144,166267.983774,-4457.403312,9737.630460,541290.750000
2757,0,-0.161834,0.104251,0.011895,-106036.422410,-347090.272727,-20667.278731,-188604.638849,-1512.883473,11299.371316,168682.109375
2758,0,0.080177,0.175943,0.010979,5736.896016,-267728.284342,13474.607900,212602.448079,-47120.315755,2588.857234,615076.125000
2759,0,0.076894,0.198344,0.012508,-340106.894694,-371583.807617,-24934.085917,251561.256348,-6341.148153,6340.065364,618583.312500
2760,0,0.070608,0.182324,0.025560,60156.170077,-159533.586526,31843.517917,71505.572710,-31262.499057,20965.019026,239685.437500
2761,0,0.056981,0.190625,0.010871,-54567.304064,-181390.796115,23742.657376,5168.273153,-613.619263,28511.113607,239685.437500
2762,0,0.196107,-0.086132,0.010906,-52411.477197,-93251.360303,17743.763159,-72787.807068,9530.891168,-4945.948853,174347.437500
2763,0,0.184601,-0.077215,0.011239,-93345.091406,-281439.996289,-6974.838354,-152734.238281,11197.444836,-94.548877,455529.062500
2764,0,0.199851,-0.069160,0.025290,-51488.691312,-147923.571909,15830.317824,-101562.335111,3470.166766,-4833.986356,208719.640625
2765,0,0.174553,-0.089318,0.024413,-115367.550706,-370872.319411,-26548.749324,-172072.400616,5209.857135,-2444.004899,459648.562500
2766,0,0.192804,-0.086088,0.032000,-60481.828651,-132329.857603,17355.852793,-65953.202242,267.776170,-1914.557955,198232.359375
2767,0,0.181702,-0.068463,0.026753,-103659.345969,-395555.480824,-40246.548606,-172343.154119,8013.492887,7810.536491,445712.656250
2768,0,0.185899,0.098439,0.083351,-63695.155717,-162590.856268,6555.196523,81204.849787,-1148.965776,-2835.644828,434497.625000
2769,0,0.167606,0.098070,0.070086,-119883.771973,-355142.504972,-50427.133745,184750.355824,2569.687273,-7676.304937,426010.875000
2770,0,0.167400,0.098342,0.089699,-137672.733561,-371041.508464,-54876.324504,199036.884766,2424.840052,-6273.020924,434497.625000
2771,0,0.176058,0.115122,0.083311,-37026.942702,-168708.320989,8872.680362,91981.282828,2100.183887,-1985.075873,66948.890625
2772,0,-0.158486,-0.142834,0.010753,-83230.916779,-82390.565773,3341.127335,108476.249756,-9445.030319,-997.320541,277527.187500
2773,0,-0.168491,0.126636,0.070406,-17306.255432,-100494.309937,21119.439888,-59743.059471,-126.524643,-763.852541,187525.171875
2774,0,-0.160818,0.137305,0.073846,-72921.039503,-89897.132812,15107.103561,-109528.462917,2353.221296,-203.739395,194027.812500
2775,0,-0.145528,0.130560,0.102036,-116922.939535,-131085.876628,664.111786,-209989.303385,3000.628229,-2756.414724,466026.375000
2776,0,-0.158663,0.140264,0.044846,-83597.308360,-77507.011556,15498.896558,-109474.918050,-6437.172043,2525.574605,179281.296875
2777,0,-0.168491,0.126636,0.051186,-30492.928809,-131649.494405,13014.217608,-77600.338013,-2548.197899,2137.514843,210124.078125
2778,0,-0.147130,0.128940,0.051278,-118648.723927,-105141.972745,5739.913627,-223132.914062,-1924.177543,-178.597667,363727.062500
2779,0,-0.136993,0.145448,0.057573,-171131.066023,-144637.201904,-17153.621102,-108820.941755,-35.749883,2527.126066,363727.062500
2780,0,-0.146168,0.152931,0.070992,-84657.840441,-66349.894640,28553.759399,-47655.298367,5567.713067,7283.543586,194027.812500
2781,0,-0.139893,0.157954,0.085778,-92550.230155,-91513.673235,20391.824341,-52354.989240,1012.133045,1280.763968,179521.515625
2782,0,-0.141012,0.134066,0.077428,-150320.410286,-111979.890137,-4220.424715,-193589.169661,2508.957660,9376.312333,473160.875000
2783,0,0.195051,0.001689,0.058032,197482.067575,-230360.416853,19752.222513,11145.433036,-2394.476188,-2581.483789,490426.031250
2784,0,0.194079,0.023597,0.044819,88911.701436,-284764.107422,-6367.902262,138012.968099,-481.028076,-14067.256007,490426.031250
2785,0,0.169188,-0.000835,0.024167,414989.840104,-21643.949719,63285.367468,-5589.128556,-26680.778573,2882.482088,306201.250000
2786,0,-0.062445,0.185322,0.032254,-52493.943988,-153707.542383,46698.196558,-70523.433094,17914.973441,-6270.540177,452439.812500
2787,0,-0.090758,0.190357,0.026139,-205934.183919,-330504.083854,-30061.460669,-260920.057031,2834.297131,-8695.296272,652866.812500
2788,0,-0.103801,0.103184,0.030813,100994.057706,-92724.776456,30582.864025,1219.688471,5987.705677,-17749.453952,553297.000000
2789,0,-0.091208,0.091208,0.048049,88063.769741,-85677.749023,19177.983651,1678.152874,1869.420543,-3612.087703,312394.531250
2790,0,-0.091208,0.091208,0.028829,89327.838086,-96844.066016,9824.369958,4146.678817,3494.041306,-6074.364078,140851.437500
2791,0,-0.108542,0.105321,0.013629,103120.336026,-72680.477273,33421.375644,-14500.148815,2259.349981,-16011.887901,287685.250000
2792,0,-0.135683,0.162592,0.105588,-91507.142896,-116056.570898,21317.960162,-49283.472705,4902.699309,-1851.271509,224346.015625
2793,0,-0.122816,0.171580,0.098984,-67708.903477,-224474.439872,12538.910714,-130441.935686,4710.814898,-2821.453124,224346.015625
2794,0,0.206022,0.043631,0.102946,-37440.110669,-209812.926172,312.497635,135261.418359,125.324059,3172.758569,237718.500000
2795,0,0.197817,0.034874,0.122243,-20053.101034,-238662.577148,-7474.598264,163366.390299,-3758.815149,18211.215912,411042.937500
2796,0,0.091208,0.091208,0.086488,69124.513447,-105848.543945,11538.817674,-13658.643912,6144.085651,4306.811565,160359.125000
2797,0,0.106932,0.107674,0.080551,129038.143123,-94388.430288,49316.534386,8315.889442,1669.497061,4682.232922,581747.937500
2798,0,0.211686,-0.006020,0.070471,81164.720020,-338689.221875,-18708.780847,-15174.886816,1356.986963,-279.576742,421194.687500
2799,0,0.208389,-0.031704,0.108884,-2480.236830,-265117.856771,-8876.045688,-133319.547309,356.303267,-403.150814,392585.093750
2800,0,0.170197,-0.107227,0.066381,-80992.637868,-277580.553689,-12765.359931,-137935.078872,1317.304803,0.271725,439377.625000
2801,0,0.164222,-0.103668,0.083276,-119865.302083,-383921.597222,-42326.816262,-203509.046441,-1348.933431,4133.023621,706408.250000
2802,0,0.154458,-0.121043,0.070513,-76090.707444,-272832.500150,-4349.035789,-213298.642728,-2258.862130,1496.714571,554636.000000
2803,0,0.168501,-0.127056,0.089611,-36775.790279,-188137.984570,18822.458033,-114289.399382,-3436.536229,-2501.292660,227583.656250
2804,0,0.179689,-0.110175,0.089625,-56184.993475,-175010.412636,12869.485451,-75534.383789,-3924.616679,2854.297352,414314.718750
2805,0,0.179689,-0.110175,0.051186,-48057.565785,-169536.460372,17824.007468,-70216.515536,4211.694025,-309.272952,334944.625000
2806,0,0.173887,-0.086489,0.083276,-121478.730619,-359380.076322,-41711.043391,-171477.647912,-2014.763342,2285.645855,409235.218750
2807,0,0.190705,-0.091557,0.070465,-64101.802227,-117463.753925,23866.593703,-53747.350736,-167.086175,1908.580772,334944.625000
2808,0,0.174724,-0.086033,0.063391,-120874.249837,-352595.276693,-40920.861043,-170507.470052,1479.117338,-601.858119,760429.312500
2809,0,-0.000063,-0.169700,0.086449,-101290.544189,-1206484.559896,-144122.946737,5212.035319,-3726.227760,32219.601133,1215040.625000
2810,0,0.062449,-0.062449,0.067268,44703.383489,-161153.527794,17507.059129,58547.641376,-4024.981422,772.180492,343600.625000
2811,0,0.028152,-0.196053,0.028849,-27163.966930,-240807.263228,-220.482755,179127.972656,33218.912065,-11727.508928,186048.406250
2812,0,0.028085,-0.209640,0.038826,-93961.093750,-259239.007923,-65588.134743,125720.657670,9449.811457,-24351.344982,474787.843750
2813,0,0.044228,-0.188924,0.039539,91391.155799,10493.351911,78836.891846,112681.879056,10288.136005,-7423.995534,186048.406250
2814,0,0.029441,-0.191914,0.044842,-23378.263401,-242493.196615,11710.057292,193884.546875,20510.918294,-23114.329631,186048.406250
2815,0,0.005197,-0.192634,0.035711,-26314.182317,-625770.786058,-69775.453313,80649.244817,13890.817946,-30713.920279,621732.500000
2816,0,0.017621,-0.210622,0.025639,-61817.471802,-449129.693080,-84753.843227,74654.549534,8934.682972,-44452.480953,303369.500000
2817,0,0.089002,-0.185327,0.122505,-58063.287354,-259018.984090,-24186.526489,-186506.999924,30653.859314,-55256.803609,398376.375000
2818,0,0.091627,-0.190932,0.103325,-209801.822266,-505942.286784,-99508.016113,-242512.002253,14309.415184,-81540.846761,327248.062500
2819,0,0.120040,0.119952,0.067230,-54994.644081,-190459.235802,-2772.190448,78373.887357,4912.398067,-1389.794666,192392.781250
2820,0,0.164200,-0.103401,0.025625,-108074.619120,-359853.715169,-33070.515508,-179633.023600,-1063.052338,-10267.842500,459648.562500
2821,0,-0.000646,-0.057725,0.120416,-3219.483866,-1237659.326389,-51040.502855,-6121.887939,1318.655841,-44476.542752,1193846.000000
2822,0,-0.000000,-0.047645,0.105707,27680.850388,-1157667.377604,-106372.101491,-4280.170797,-1809.368601,-57968.188273,1193653.750000
2823,0,0.000945,-0.068219,0.107258,-2326.988365,-1240441.767045,-40663.901806,-2033.818875,-466.859319,-29738.238059,1193653.750000
2824,0,0.046351,0.206145,0.028796,-468073.377841,-239557.150701,2005.163750,47178.864591,-5815.785323,2606.137496,384785.625000
2825,0,0.072159,0.198055,0.031967,-307006.992513,-279299.072526,-23218.460556,144741.591748,-3612.828821,207.520384,518219.250000
2826,0,-0.073497,-0.076095,0.069934,42963.535689,-148331.056108,10416.580672,-50895.070490,-386.352145,1742.693492,204211.359375
2827,0,-0.084617,-0.077232,0.076214,53520.495483,-135070.189453,8108.999924,-39665.477295,-541.626110,-371.691278,193100.125000
2828,0,-0.091208,-0.091208,0.067268,44367.345403,-150000.357046,16522.956712,-49404.036208,67.602264,2111.848302,193100.125000
2829,0,-0.073123,-0.077733,0.087827,45480.584517,-145542.579901,8535.301070,-48954.005149,-2858.730405,-906.567846,218933.218750
2830,0,0.015384,-0.202463,0.116362,-13652.017568,-489392.960938,-30579.992194,130709.092859,-20876.446173,33378.236060,836890.687500
2831,0,-0.010165,-0.193045,0.120806,722.796824,-672509.957031,-30392.426964,-74323.934455,15581.009211,44869.123647,746397.375000
2832,0,-0.028188,-0.209429,0.029516,-79423.349772,-215578.875868,-40021.289107,-134307.901476,-16726.221232,-16448.259142,256533.328125
2833,0,-0.027611,-0.201044,0.014196,-43343.602100,-238958.436449,-683.329352,-181047.766016,-26062.464001,-22427.944653,256533.328125
2834,0,-0.030401,-0.192815,0.032665,-21282.083636,-214439.257463,3922.936401,-178681.968192,-35107.318324,-14610.034284,728509.625000
2835,0,0.021481,0.194370,0.019048,-98697.259691,-486527.155349,154.689988,-275362.029447,34491.567373,54045.198449,858765.937500
2836,0,-0.049091,-0.050474,0.048967,47487.477539,-156179.842448,22510.548976,-56907.654948,-6969.699178,-2177.212200,211596.000000
2837,0,-0.036688,-0.035743,0.051081,21560.812824,-229931.500601,16138.101830,-19422.133413,-3887.402644,-6208.595205,369054.187500
2838,0,-0.048330,-0.047799,0.028618,34179.849024,-160158.313965,20583.950639,-54618.428385,-11698.723521,-11614.114550,567625.187500
2839,0,-0.062449,-0.062449,0.028829,50964.359375,-161221.929865,6783.270183,-56315.259055,611.218862,-5529.196163,363504.218750
2840,0,-0.186594,-0.105716,0.017365,-40405.842869,-134504.937221,6134.053334,45532.463379,-9718.359564,-5732.732418,227980.734375
2841,0,-0.190903,-0.084362,0.014752,-67539.560655,-142748.241374,10400.477085,73671.359266,-11333.602878,-3629.122199,166344.421875
2842,0,-0.169717,-0.106368,0.012522,-80719.012044,-280840.996962,-11673.863461,144471.734266,-1137.357491,-14899.960816,436764.312500
2843,0,-0.208329,-0.014467,0.091994,58129.362204,-293607.098346,-14603.386668,72924.326770,-1737.990619,-3770.271051,444505.093750
2844,0,-0.196946,-0.008220,0.108773,143006.915527,-231122.267127,2849.009532,37666.564523,-8090.530994,174.195416,281406.562500
2845,0,-0.207780,-0.031137,0.115059,-3347.778175,-240501.269531,-7812.257201,128441.239502,979.406135,-2526.318488,281443.875000
2846,0,-0.192912,-0.032372,0.107463,-5476.287214,-268519.309710,-20432.281570,155387.243025,2090.925382,-19096.077167,404122.593750
2847,0,-0.019599,-0.020046,0.093370,110775.921497,-510762.797917,-11181.520479,26659.072126,15266.714613,-10051.608525,528884.375000
2848,0,-0.003500,-0.022285,0.105514,192192.184462,-644335.538194,-1833.230685,2850.563786,898.330539,-31400.489149,687292.687500
2849,0,0.002143,-0.030160,0.089691,167456.500000,-732002.201389,-13891.354085,-4309.713894,-298.230103,-20991.830817,1005408.312500
2850,0,0.208694,-0.036903,0.012985,-10889.578561,-255423.035714,2250.571167,-160794.565290,-1027.765451,1290.326399,430528.812500
2851,0,0.205589,-0.044449,0.025650,-39766.587059,-223324.050521,-3175.969491,-142187.332292,3172.306618,3023.105358,430528.812500
2852,0,0.034670,0.207160,0.015500,-371902.170573,-344030.685954,4355.967321,-117093.324707,-2272.245402,25439.992856,362704.687500
2853,0,0.159549,0.143784,0.011368,-50306.663239,-63492.455339,19869.090371,101626.473455,9396.530051,887.137941,268168.843750
2854,0,0.134173,0.130946,0.044801,-201445.765904,-130808.987305,-13775.956569,218782.627790,-2610.817241,-1141.665309,505705.562500
2855,0,0.144159,0.153862,0.044872,-122844.729537,-99248.548029,16789.156561,63403.517667,9060.202007,-438.628071,110661.109375
2856,0,0.154977,0.131626,0.038439,-76373.199902,-119119.423267,11115.774323,178812.181641,-1130.729773,8350.916913,573929.500000
2857,0,0.193497,0.026253,0.060830,66112.116616,-279088.545455,-13789.001340,145696.319957,-2501.242761,-813.679995,426910.312500
2858,0,0.209192,0.031749,0.070474,3778.127318,-256697.356534,-7768.654762,134586.125355,-1242.210248,441.682498,292120.656250
2859,0,0.194079,0.023597,0.083258,74271.635216,-275176.620793,-9930.745434,130036.324069,5686.688215,10075.272508,354180.812500
2860,0,0.149167,0.127700,0.103267,-105831.839122,-140953.497470,3823.025224,232257.348722,-6799.213712,406.790960,361401.187500
2861,0,0.148193,0.124038,0.121306,-102848.189307,-157551.647998,-2242.119208,283475.049219,9739.165875,-1065.535895,588234.062500
2862,0,0.127633,0.129261,0.028197,-219896.501065,-223949.485263,-40570.310547,218057.807528,-2297.888849,-10446.549436,567722.250000
2863,0,-0.075015,0.196656,0.048035,-331186.137614,-337255.334961,-48510.530802,-177582.529622,-1671.629126,-4056.348490,648921.500000
2864,0,-0.066285,0.200358,0.064995,-337462.080433,-287535.390270,-26864.142623,-121857.812604,-100.565409,-9280.194047,683930.687500
2865,0,-0.082970,0.196918,0.066890,-313867.368750,-385259.795312,-68182.901587,-263316.903906,-2598.494452,9909.113495,515592.812500
2866,0,-0.091295,0.190770,0.051135,-186153.136907,-322805.589093,-22904.768742,-271127.149940,4018.327276,5282.737577,759205.625000
2867,0,-0.066120,0.183453,0.056057,47959.412964,-126326.828094,66723.068799,-67344.641548,1523.742928,-4544.595088,479548.187500
2868,0,-0.079757,0.177684,0.042532,48130.139648,-185513.290934,43349.346639,-159104.965820,11637.344442,988.577916,545574.437500
2869,0,-0.133096,-0.143555,0.046765,-206125.717529,-268117.863582,-36834.634249,125306.379395,634.960130,1860.435129,385264.156250
2870,0,-0.047441,-0.204625,0.065391,-69743.510437,-42414.386203,-6295.206280,-94699.787429,-998.804419,181.101969,94421.843750
2871,0,-0.047760,-0.206185,0.089742,-101094.906603,-69398.510708,-23916.577096,-86399.572460,4625.258510,6991.365705,94421.843750
2872,0,-0.072373,-0.197890,0.089541,-96491.779728,-340502.388607,-80572.302694,18423.147616,-5620.829220,5769.103414,427442.906250
2873,0,-0.062089,-0.184005,0.070480,138416.715623,-58127.569836,74235.792809,-98005.830517,-3756.362990,330.778887,212352.281250
2874,0,0.159938,0.132611,0.120346,-46060.032682,-150158.748890,9125.831246,138227.421076,1732.417386,-4177.929368,99464.601562
2875,0,-0.065500,0.198781,0.090015,-313632.978215,-292357.972356,-25941.462654,-145123.134906,-2195.689661,-2590.124115,515592.812500
2876,0,-0.047689,0.197421,0.068179,-185328.021233,-163574.192017,53640.502869,55494.199025,-831.570274,-11657.582712,470520.062500
2877,0,-0.029345,0.209728,0.064066,-267966.597479,-315413.525568,56681.276989,133739.672585,-8787.337830,-4562.511355,369125.156250
2878,0,-0.047098,0.205358,0.051186,-322701.488582,-243012.690956,8321.051429,14462.277047,-8161.188779,-4872.257951,330004.718750
2879,0,-0.029599,0.191773,0.083284,-114534.948317,-305973.629657,37858.105619,224658.403546,14751.283964,-13390.838118,749073.437500
2880,0,-0.027947,0.208879,0.089625,-259540.422729,-302820.141276,42520.389720,134468.005941,-2745.907674,-9675.815140,413042.656250
2881,0,-0.005278,-0.198484,0.015848,-13250.237457,-594119.032552,-38835.164697,-65528.281982,-9561.038540,-40297.431946,496268.562500
2882,0,-0.131515,-0.133578,0.064020,-207163.628981,-195226.203275,-23293.574360,172618.629432,-3010.974116,6200.904419,431079.125000
2883,0,-0.121789,-0.123302,0.083724,-113294.086050,-243144.106971,-18007.234319,69360.662861,2164.517766,-7736.468541,464250.250000
2884,0,-0.132782,-0.143606,0.082883,-204542.978551,-262031.398368,-37489.354542,120708.452985,2552.176566,-4556.975758,516362.250000
2885,0,-0.122570,-0.152461,0.070498,-160806.598892,-455161.264323,-69498.346120,158414.275065,1793.645721,2337.900848,516362.250000
2886,0,0.152796,0.146162,0.094022,-103296.260864,-70877.711388,19274.800448,95170.797069,-12342.036645,-843.595849,361401.187500
2887,0,0.141406,0.156362,0.108397,-115747.838376,-104971.005542,18543.792114,51507.495605,-7147.507560,-1622.279523,103210.148438
2888,0,0.001870,0.187461,0.102459,-117280.770972,-751937.659375,-63803.577600,-19161.534143,-5614.253500,-56432.537903,704103.875000
2889,0,-0.000063,0.169700,0.105746,-159706.433496,-1347123.300000,-161184.020206,-12808.232764,880.341633,-91290.537500,1373189.750000
2890,0,-0.211745,0.003364,0.102462,65772.337457,-337614.796875,-21974.702567,-11469.500309,-23.723401,2347.409166,439571.156250
2891,0,-0.210448,0.012663,0.089939,42205.501151,-312428.976562,-21318.141828,-62517.972013,-1261.197342,-93.536844,444505.093750
2892,0,0.117590,-0.175173,0.091775,-104647.920020,-449777.596094,-33788.070703,-290672.097656,-9294.413587,-19563.035687,780031.437500
2893,0,0.131908,-0.165113,0.086899,-70277.643555,-252003.065204,19264.090032,-119008.089956,-10326.335660,-11078.432537,238531.265625
2894,0,0.119212,-0.174319,0.068270,-75689.274078,-418773.796875,-21046.246385,-288546.309570,-1139.747663,-2217.007290,811036.875000
2895,0,0.098346,-0.177176,0.077640,21121.051288,-445669.629244,1279.015098,-193245.535673,3895.241726,-23357.902292,739617.500000
2896,0,0.102595,-0.164219,0.083399,81245.332675,-406641.157670,47983.140651,-217400.158736,1887.619355,-36042.618763,621632.937500
2897,0,0.114775,-0.156679,0.089710,-50440.096567,-507712.564303,-31761.809702,-210158.494066,-11547.809514,-23218.865949,548926.500000
2898,0,0.090117,0.190512,0.025692,-192892.285767,-308166.591146,-15135.992716,287700.945638,-10579.806274,-17117.033208,615076.125000
2899,0,0.031991,0.192881,0.122622,-198655.733480,-275169.316813,15905.426493,-218434.457682,-29122.315557,-18885.797729,968536.937500
2900,0,0.194044,0.023175,0.102697,54221.619629,-276823.342448,-11727.626200,132562.726725,-1004.525854,21724.605164,448700.437500
2901,0,0.120459,0.119744,0.012911,-30812.280355,-210483.275228,7398.790771,99395.747070,-7533.671814,-22222.234355,404372.406250
2902,0,0.116664,0.118095,0.032128,-19759.960050,-220806.949574,2345.806641,63262.435858,-7423.408185,-21117.610598,300297.312500
2903,0,0.208389,-0.031704,0.089665,-2895.772425,-259257.319661,-9161.197110,-132047.730469,-3311.486019,-2683.316834,329771.531250
2904,0,0.088311,-0.174102,0.109995,142442.160334,-248288.255593,36498.126287,-96608.672724,26866.823464,-46031.699058,475763.000000
2905,0,-0.019382,-0.196150,0.108971,-10068.836283,-408806.223755,-27184.747335,-190924.396159,33811.488424,22709.398407,259742.609375
2906,0,-0.041851,-0.189632,0.126692,35282.879972,-63574.960627,29387.487926,-159134.157315,30142.258012,-230.011275,479559.593750
2907,0,-0.059053,-0.187366,0.122349,66667.694922,-48144.222559,26899.757288,-85490.291162,-9520.782513,-8983.551825,175200.671875
2908,0,-0.047308,-0.205945,0.117027,-117862.958008,-79903.521428,-31378.684204,-81527.269627,3260.645364,23286.009112,236944.359375
2909,0,0.107229,-0.106875,0.038567,55783.815875,-150293.727604,47107.194574,57871.218359,-6017.997911,15140.338029,200912.640625
2910,0,-0.033690,-0.033690,0.105707,23849.890442,-225583.720312,23207.733826,1467.548584,17220.466556,10861.901904,528884.375000
2911,0,-0.008179,-0.015865,0.121159,230639.224159,-595928.227163,-448.377291,9151.786777,1889.362994,-7641.636456,787054.937500
2912,0,-0.017826,0.004425,0.121361,197902.621094,-573508.442187,-15746.399579,-24171.786914,2588.872180,7975.528415,584857.625000
2913,0,-0.079736,-0.178484,0.025560,165955.667436,-229058.465188,46319.319430,48967.054044,28302.495406,5344.283813,276055.593750
2914,0,-0.090510,-0.190335,0.031967,-253153.248224,-590921.575994,-132018.316057,364945.686080,8734.125058,5287.509460,782784.187500
2915,0,0.054636,0.190462,0.123125,-97707.515259,-186624.898071,2405.733337,29572.239217,2096.727961,-6086.147074,287138.437500
2916,0,0.051249,0.205963,0.107801,-467566.193638,-284361.117606,-3826.579023,31053.054975,1164.784217,-5674.484506,473340.437500
2917,0,0.043119,0.189925,0.107108,-64163.573277,-78766.425642,76344.601388,-94665.340960,-6180.298479,-9641.334486,391468.718750
2918,0,0.047857,0.048237,0.023407,103438.824137,-97588.143880,31841.339498,-686.217855,11691.464905,9383.744766,168791.468750
2919,0,-0.022740,-0.017118,0.045588,104851.045605,-469864.294531,-13280.831372,20762.603564,-18345.249506,11076.461377,369054.187500
2920,0,0.204717,0.050367,0.052021,-58639.434495,-206452.943510,-5201.981253,127603.972656,1049.443208,-5789.357462,295383.218750
2921,0,0.206434,0.046961,0.077222,-44560.323524,-192296.342849,1689.995082,114606.325421,-3423.523621,-2046.432270,228170.593750
2922,0,0.023830,-0.196525,0.090440,-41632.000057,-313069.511063,-43142.401251,159682.644043,-13718.795364,11037.664144,203651.500000
2923,0,0.041098,-0.205596,0.083486,-77746.339393,-51844.755427,-14434.057493,109911.090294,-7494.550751,4790.221690,214051.437500
2924,0,0.027783,-0.208613,0.069868,-65392.633862,-212221.381250,-48148.791757,123416.012891,1865.562076,844.692899,214051.437500
2925,0,0.028849,-0.193208,0.069461,-30146.819691,-204303.477128,473.459828,184191.184304,-748.860532,-928.549259,322822.937500
2926,0,0.184293,0.061750,0.070428,-93444.492037,-337434.052284,-41198.590414,170486.514423,-835.785594,-385.560660,658025.250000
2927,0,-0.165917,-0.112108,0.122325,-78144.015032,-289435.042271,-18776.076547,164796.862932,3099.511810,14458.033325,687907.187500
2928,0,-0.168896,-0.097932,0.108802,-115609.457919,-338005.594815,-37800.308339,182393.686435,3709.378762,8610.243647,389226.093750
2929,0,-0.193958,0.081235,0.041576,-57184.670837,-160710.071289,8942.138489,-93535.655029,-7373.842120,5047.035174,204482.734375
2930,0,-0.199702,0.070116,0.051244,-46919.684283,-138860.538530,14123.812117,-93638.787376,-1043.296686,-539.306590,231023.125000
2931,0,-0.182845,-0.069041,0.019220,-98072.439190,-328151.154447,-20321.570336,169490.745192,-8802.146209,2188.112251,419678.312500
2932,0,-0.166199,-0.103700,0.031054,-103827.728795,-320962.622489,-31252.971704,163890.508929,-1432.537731,-5450.474694,431073.406250
2933,0,-0.022842,-0.019810,0.064065,73391.477808,-465843.254688,-19871.378931,21355.314746,-2422.648504,324.442337,602687.937500
2934,0,-0.027475,-0.026930,0.028166,66380.455652,-338494.433464,16410.791858,5189.516927,-20815.894006,1993.062097,549882.750000
2935,0,0.011075,0.209327,0.013728,-171454.427517,-540800.534722,9375.759189,-123890.151910,3393.623020,44388.170736,576388.937500
2936,0,0.028419,0.208940,0.032006,-255354.458147,-313264.498884,37827.107875,-132762.980957,-3920.568122,14974.161837,362704.687500
2937,0,0.004845,-0.187348,0.086637,-57462.989680,-738071.480114,-92973.123313,25421.526545,-307.402887,29296.400413,586513.625000
2938,0,-0.006395,-0.195262,0.096501,-7485.337299,-591429.463942,-67719.032471,-92671.911377,10320.771568,29137.239145,489780.812500
2939,0,0.152953,-0.122177,0.052822,-87323.341166,-276297.957357,-6240.145264,-231618.678385,158.435628,-3682.407146,439377.625000
2940,0,0.164200,-0.103401,0.044845,-110610.093515,-358428.893029,-34825.396559,-189083.322716,3569.825843,-1089.026864,439377.625000
2941,0,0.168671,-0.127853,0.051341,-31013.651389,-159053.820268,29822.441506,-109126.374068,4885.864985,-3850.268711,238236.281250
2942,0,0.151696,-0.146211,0.051152,-107825.511759,-118209.234965,30709.593882,-102760.386983,3616.685867,3849.942485,231684.984375
2943,0,0.144992,-0.132237,0.042550,-114178.905770,-146718.587139,26095.625362,-194988.229567,4123.907266,6836.763719,470040.937500
2944,0,-0.063109,-0.184184,0.095877,179298.966614,-23123.889119,93101.243844,-98287.902832,-15332.332526,-322.626879,598565.000000
2945,0,-0.048426,-0.189671,0.108054,56491.933444,1266.854591,58326.419837,-130958.863281,9325.579461,4818.727389,259742.609375
2946,0,-0.106349,-0.182883,0.120293,-81725.045654,-312334.029297,8077.577555,304836.782552,16844.465317,-30793.705501,695387.375000
2947,0,0.168812,0.126297,0.108884,-34647.751010,-146770.517401,14435.117474,96115.221103,-5338.851135,-6900.605735,301818.781250
2948,0,0.001934,0.049830,0.011748,13977.793411,-1313234.003906,-94778.447083,17086.721123,4021.911163,-63294.613251,1256417.750000
2949,0,0.209104,0.031894,0.089547,9633.760598,-260432.349432,-9152.832775,121646.063920,-1645.460923,1904.431041,345748.656250
2950,0,0.198684,0.074221,0.085328,-58760.502584,-131380.217985,15725.168922,78860.840024,-774.174529,-3275.142181,174321.656250
2951,0,-0.170280,0.124157,0.010528,-33925.495373,-167863.347941,971.757640,-97705.622009,-1959.160746,12714.833659,74387.492188
2952,0,-0.158829,0.113994,0.025560,-89613.094727,-308176.631836,-27060.162572,-212075.907715,10761.087509,13168.524679,524830.437500
2953,0,-0.002706,0.200368,0.013698,-131596.207852,-631895.035511,-4542.726673,23027.321245,-3641.189448,48050.931041,528391.375000
2954,0,0.001865,0.210705,0.025652,-138820.387804,-460921.723958,58461.733832,-27657.250743,-931.749756,15353.905850,443630.093750
2955,0,0.152897,-0.119707,0.025715,-67655.519744,-279554.956706,-5667.408412,-243063.061523,-1645.657384,-9248.533289,437177.406250
2956,0,0.128988,0.000000,0.105707,467201.171875,276.982992,5911.451312,4083.753799,4422.910786,-51.721116,466372.125000
2957,0,0.118473,0.000046,0.120615,431876.526562,-324.091045,-32.883170,3144.271920,-391.694258,-21.437734,412099.718750
2958,0,-0.123887,0.123854,0.013497,-88201.095494,-118243.857213,12612.387538,-158814.942400,1264.911052,-26760.625480,459234.562500
2959,0,-0.148009,0.123764,0.009286,-94452.457608,-197109.022461,-14696.648904,-257280.742898,3101.455541,9183.972739,538443.562500
2960,0,-0.118278,0.116806,0.032044,17323.427824,-191028.104793,12086.505859,-87676.878662,8244.323984,-21576.018052,194067.968750
2961,0,-0.127197,0.126761,0.029048,-164149.528984,-173190.997772,-14185.131378,-227586.667969,4854.187119,6956.051599,459234.562500
2962,0,-0.022393,0.192651,0.123556,-170323.317891,-460813.110352,-2216.941732,282835.928385,37434.871399,-39927.418447,1016749.937500
2963,0,-0.011689,0.195380,0.108922,-143546.117818,-583633.763997,-20467.520060,154077.457682,14720.584094,-38313.891218,577383.000000
2964,0,-0.107221,0.163546,0.044977,-87794.767534,-304999.159091,-29470.397561,-223100.316051,203.696639,13044.228543,474780.500000
2965,0,-0.120136,0.152732,0.046052,-264434.549154,-393447.413086,-105241.665527,-177904.740438,3434.018005,7427.228587,406423.812500
2966,0,-0.138871,0.136311,0.039028,-206768.511364,-133326.195823,-15334.113337,-168115.277521,3226.247603,1380.098742,363727.062500
2967,0,-0.144888,0.154305,0.044849,-119881.140625,-83891.622781,19425.059054,-61332.590288,-3644.981288,290.815122,181524.656250
2968,0,-0.133230,0.142401,0.024506,-270343.279297,-177205.685547,-37442.710876,-141931.587565,-2125.431941,951.145398,509666.218750
2969,0,-0.127157,0.127157,0.048049,-173509.970929,-234199.402539,-40452.432214,-202752.852637,-4557.825604,-3672.042349,363727.062500
2970,0,-0.147358,0.129390,0.025176,-95029.663346,-81388.102425,13876.943229,-207424.294271,880.607790,5355.328023,459234.562500
2971,0,0.108652,0.000000,0.105707,461498.335938,-1589.026962,-1306.974825,3610.681789,31.556131,824.604553,467387.750000
2972,0,0.192780,-0.023504,0.032036,52910.643777,-288101.436790,-11653.755943,-151008.905185,-2429.693126,19677.005959,366919.937500
2973,0,0.195252,0.010370,0.070498,189158.960992,-246123.665799,16283.566664,52656.240560,6155.641778,1682.679301,354304.718750
2974,0,0.164292,-0.103680,0.102588,-109339.489176,-355007.830078,-34871.026647,-187260.416504,-2146.770521,7653.933014,414314.718750
2975,0,0.144642,-0.131406,0.109542,-127336.455227,-142656.842773,17523.697578,-201750.925293,129.431521,-14622.736244,577088.250000
2976,0,0.161317,-0.137102,0.104751,-43032.697671,-125786.059814,22413.598325,-117840.717215,-7205.320922,-7087.032551,112467.671875
2977,0,0.155180,-0.117130,0.093095,-93818.918482,-341119.704102,-24733.373840,-255929.142253,4916.918428,5534.375717,440580.250000
2978,0,0.128988,0.000000,0.086488,486206.871875,-765.986845,9962.216987,4204.808914,4759.432080,575.388747,483344.968750
2979,0,0.169965,0.115406,0.123473,-61007.429545,-218598.217204,-3694.691358,106805.121541,-5137.818797,-13371.290498,226820.593750
2980,0,-0.047877,0.046754,0.124302,68034.374593,-103289.854004,10600.025365,29476.994466,-3853.317713,-20037.245308,156436.390625
2981,0,-0.060558,0.063816,0.117041,89708.196195,-93214.324097,8727.499353,-3299.691350,-7070.505593,-6945.851088,138647.109375
2982,0,-0.054510,0.050933,0.104598,65603.572322,-121484.755559,11368.439852,35182.542856,3354.557601,-13725.018564,335756.312500
2983,0,0.056562,-0.186709,0.089630,53063.844090,43694.853345,67456.168945,99790.354199,-2336.168707,-2665.801141,376550.687500
2984,0,0.039714,-0.191086,0.094760,32938.152808,13872.224232,65291.790838,118329.732422,-18009.885431,-5491.516775,203651.500000
2985,0,0.108652,0.000000,0.086488,484449.020433,-730.731462,6084.206278,3765.579086,626.128595,901.884127,465714.531250
2986,0,0.047249,-0.190040,0.070062,21548.784598,950.401241,54219.169582,98136.477550,-2879.584957,7588.427850,45072.546875
2987,0,0.060990,-0.202638,0.077986,-81129.118286,-22055.355624,-21604.980243,22501.234744,5991.300479,10857.845914,173683.984375
2988,0,0.068597,-0.182131,0.083339,86146.776536,-130119.629333,62199.987417,62653.404371,15873.107412,3895.180608,327248.062500
2989,0,0.119716,-0.164529,0.014382,-46612.816788,-357123.364183,-20954.695566,-154656.174955,16241.625509,24069.429591,462063.625000
2990,0,0.094567,-0.095335,0.043503,37326.563919,-160967.269328,22864.113454,60447.920085,-4724.013107,5832.019918,211208.843750
2991,0,0.105770,-0.107347,0.017689,-59275.463690,-192218.681729,5202.161679,104723.595703,-850.193678,34029.205256,233353.937500
2992,0,0.118237,-0.117929,0.030537,-63766.695459,-263006.434668,5865.789868,-27930.746094,14782.810287,54342.779462,673739.625000
2993,0,0.120374,-0.119800,0.048711,-95164.777621,-231333.379069,7782.510615,-46263.950358,802.057449,19541.122596,302341.000000
2994,0,-0.000000,-0.047645,0.086488,12192.370417,-1165912.099432,-142930.744806,-8488.490323,-2510.261808,-32065.766701,1133550.125000
2995,0,-0.000000,-0.047645,0.067268,6058.451721,-1186379.644886,-135042.813920,-5062.439897,1467.080390,-2701.409219,972945.187500
2996,0,0.000888,-0.057469,0.032063,-8285.918736,-1255141.640625,-95615.856140,-5112.761902,2594.253258,38505.358757,1256554.750000
2997,0,-0.112681,-0.159832,0.044780,-73190.994920,-439141.397837,-35158.150766,222455.525240,2672.303717,11018.877327,544095.125000
2998,0,-0.097929,-0.167710,0.032041,51784.680654,-324731.270833,24009.009806,224595.625000,13788.158592,13155.371251,276055.593750
2999,0,-0.107713,-0.181200,0.051186,-129697.450928,-350698.921224,-21793.070150,328936.931641,8058.910474,10368.214915,713461.187500
3000,0,-0.095618,-0.173686,0.122924,84757.577840,-287122.439236,14886.888129,227403.334201,-16827.668186,-26923.266284,342191.843750
3001,0,-0.111842,-0.159641,0.084103,-84158.540505,-455681.228693,-40439.577185,228510.309437,7348.419667,-5196.091107,516362.250000
3002,0,-0.187751,0.049019,0.083284,-77859.158325,-309281.536458,-39390.316732,-150735.391927,-301.761987,4294.177306,517399.250000
3003,0,-0.177737,0.082716,0.103860,-104450.601713,-337805.567909,-31078.273700,-175772.990535,1095.220554,-7776.314654,183994.859375
3004,0,-0.187751,0.049019,0.064064,-76297.111450,-304480.237630,-42641.241618,-151464.056641,-2505.860293,-2405.538253,517399.250000
3005,0,0.182347,0.088862,0.012398,-92865.211559,-252627.636985,-7186.428772,127394.708629,4865.250449,4305.415466,245032.265625
3006,0,0.179208,0.078251,0.025560,-118421.286133,-376655.937891,-35991.194043,185430.000000,7504.206348,-3303.858515,445757.906250
3007,0,-0.163329,0.134968,0.031851,-35926.909298,-95608.796218,10949.937589,-81054.995174,-1559.893294,6844.455598,74387.492188
3008,0,0.189249,-0.048091,0.032218,-75046.246995,-331575.251803,-32601.087665,-161534.637921,7224.893059,19199.451735,263122.812500
3009,0,0.190724,-0.042573,0.011873,-50589.053989,-291738.673438,-15021.535510,-171858.635937,7687.021064,15398.507141,532292.500000
3010,0,-0.148518,0.149788,0.031019,-100500.882324,-48272.323340,24067.846606,-83895.777783,-6077.094055,6377.943915,392779.312500
3011,0,0.125812,-0.001082,0.025379,458876.018229,567.261911,3682.490427,4297.118355,-3277.821119,288.259889,469697.812500
3012,0,0.139112,-0.000692,0.018940,448531.279830,-340.221857,14478.006090,3497.822948,-10919.498496,-580.424553,411406.375000
3013,0,0.087909,0.174594,0.051318,43854.143356,-266751.960612,32122.307213,183094.343099,-14706.564709,-1958.509534,693623.437500
3014,0,0.090117,0.190512,0.044911,-190836.834736,-366234.860577,-29062.278752,266342.928786,-3506.359227,-13046.098872,815108.062500
3015,0,0.087909,0.174594,0.032098,63208.837536,-232816.609020,26151.187395,185735.965110,-32378.527388,2245.038319,620188.187500
3016,0,-0.126489,0.168680,0.048091,-88556.070994,-204686.135498,4694.033712,-99627.746602,-237.721448,-239.045726,181524.656250
3017,0,-0.103476,0.164224,0.064060,-87754.633475,-291546.886719,-17838.788740,-235162.661830,301.901729,6981.420331,460998.031250
3018,0,-0.106935,0.182760,0.051294,-77860.614136,-227085.694499,18148.209676,-190197.510417,-5272.208706,2789.825012,382151.000000
3019,0,-0.122752,0.171241,0.070189,-82033.350562,-200889.456576,10811.526693,-98905.107275,1051.939884,6976.341878,345450.656250
3020,0,-0.181159,-0.108066,0.044437,-42690.599955,-135013.621338,15019.663188,48312.268840,-2230.663961,-3623.295842,227980.734375
3021,0,-0.165326,-0.104077,0.051625,-111528.380258,-328802.268329,-36176.842144,170208.594351,-6899.018598,-5124.554472,195508.203125
3022,0,-0.169733,-0.121938,0.064873,-39905.570190,-162269.212108,13439.889797,99834.866769,-1527.060150,-3999.789257,195508.203125
3023,0,0.178935,0.112464,0.102325,-47369.614299,-161610.251729,9125.215627,78633.420939,-1063.130814,-9071.760324,79465.398438
3024,0,-0.182957,-0.106530,0.078780,-29752.426795,-118502.784743,19256.921276,46687.204177,-706.596606,-930.371535,195508.203125
3025,0,0.166983,0.099819,0.110610,-144632.741300,-374067.936080,-39836.786177,189207.596413,-1486.765219,-11093.829969,296386.062500
3026,0,0.185899,0.098439,0.102570,-63610.787243,-136707.419567,11104.244420,79828.119141,-568.690545,-8137.247620,94053.484375
3027,0,0.175548,0.094103,0.124095,-102475.183702,-290706.243056,8565.267890,147190.606120,-12786.605433,-7236.804079,236993.625000
3028,0,-0.016374,0.211090,0.107706,-180295.957465,-428779.675347,52312.940430,107007.053168,-7530.235813,-7306.884172,436904.218750
3029,0,-0.179425,0.110519,0.108845,-39741.876056,-143239.090430,12227.135516,-72118.445508,-2413.441659,-6921.607705,211657.031250
3030,0,-0.169079,0.098057,0.102438,-122569.934659,-327342.410866,-41391.518410,-175291.078658,-4767.074690,-13105.917649,387892.250000
3031,0,-0.140121,-0.135310,0.094942,-162522.509318,-137758.536133,1493.860179,191236.053060,7938.329692,-4208.589928,464250.250000
3032,0,-0.153407,-0.119633,0.085040,-87815.791992,-267872.695703,-20473.449463,234809.434375,744.405664,-658.570239,244802.828125
3033,0,-0.147432,-0.128833,0.108747,-78693.275701,-147220.573242,16745.240190,213923.662642,4550.613648,3067.647491,442522.718750
3034,0,-0.122051,-0.123416,0.101403,-121001.783162,-222359.564697,-2101.459117,96058.656250,5398.757975,-23779.637782,464250.250000
3035,0,-0.064037,0.064927,0.065508,97295.125895,-96547.663737,18300.584452,448.361383,89.978833,-2929.457958,206193.437500
3036,0,-0.062449,0.062449,0.048049,90249.822153,-95187.612718,18298.669152,2588.910459,2237.243515,5156.473149,206193.437500
3037,0,-0.076829,0.076829,0.048049,90245.137074,-89680.086293,10986.823275,401.985111,2161.170739,-383.515725,167548.515625
3038,0,-0.076829,0.076829,0.067268,92446.205892,-94275.909831,13085.268458,1170.717870,1153.743886,-2682.721850,177614.328125
3039,0,-0.076829,0.076829,0.086488,87054.550781,-95953.238932,10648.980967,4349.338556,-967.816997,-571.826492,154879.406250
3040,0,0.208578,0.018838,0.115194,52344.829199,-308034.950521,-4843.252214,94911.872461,4769.494457,3752.661325,408927.718750
3041,0,-0.051233,0.053014,0.063745,94669.622559,-92742.860352,37227.356242,4795.980947,-303.484970,-4161.508970,206193.437500
3042,0,-0.062341,0.062583,0.087111,89274.244704,-99353.393883,16230.537673,5065.372356,1439.113634,-5470.464203,227961.187500
3043,0,0.041824,0.190230,0.086455,-62993.790452,-88175.600004,91075.080416,-99685.488262,-3083.760450,-8270.011071,87843.648438
3044,0,0.046672,0.048498,0.120784,84940.764730,-120233.184082,16881.332855,-23028.666046,741.819349,-15877.876018,191614.953125
3045,0,0.064930,0.063606,0.119483,74064.466309,-131102.912598,1742.820394,-24226.267405,2621.322314,-13014.758392,225447.515625
3046,0,0.034011,0.034087,0.105953,67968.938104,-235516.575120,20423.147686,32977.537184,-25390.746252,-8593.905358,649636.562500
3047,0,0.053228,0.050656,0.103655,75033.949117,-128304.337077,17397.497866,-31039.292440,-5273.074383,-14223.530741,228080.390625
3048,0,0.153828,-0.146543,0.026015,-83894.364641,-97620.833718,25820.065030,-123178.223899,14199.968586,7100.607622,252123.093750
3049,0,-0.068027,-0.000167,0.105456,441810.820312,11799.432800,43355.422119,-1957.737933,17095.275997,-1786.536700,425380.125000
3050,0,0.087500,-0.174675,0.090094,142847.565163,-293853.407537,77229.055420,-66929.730702,19826.233860,-31200.190951,327248.062500
3051,0,0.119973,0.120185,0.104710,-63436.838246,-202115.204368,444.951573,103677.211026,13678.991984,10775.599091,186069.937500
3052,0,0.001676,-0.209558,0.083514,-38311.455279,-493505.383929,-106111.415876,7115.222482,2504.250475,15172.501153,398672.250000
3053,0,0.008627,-0.194884,0.103215,-24875.650899,-595502.261393,-64134.972860,81359.828525,-16136.399318,40121.355103,861464.937500
3054,0,0.027012,-0.191287,0.111423,-21949.968219,-215297.927912,21798.456698,192896.489702,-36398.038258,7422.403257,721028.937500
3055,0,0.104371,0.104930,0.024296,63034.381611,-135159.615685,21378.888186,-40331.071458,-5525.783817,-15965.729408,480170.250000
3056,0,0.090997,0.088397,0.045268,84592.930437,-93408.050959,22247.150280,-5765.648726,-414.480755,-5395.990790,339996.031250
3057,0,0.091208,0.091208,0.028829,78997.818522,-109625.825846,10930.895754,-16731.324300,-4314.035514,-454.783214,293774.000000
3058,0,-0.030503,-0.192585,0.052452,-8836.008199,-193804.698853,17021.121684,-196170.240885,-17091.777756,-3861.042404,554855.000000
3059,0,-0.029742,-0.191910,0.083276,-3535.514024,-224251.199407,-1410.797082,-194407.189603,15531.400340,4933.781889,259742.609375
3060,0,-0.019986,-0.210750,0.084401,-70462.164958,-318807.898763,-81570.544210,-115179.568685,7870.012361,18152.531588,312881.406250
3061,0,-0.000000,0.067981,0.086488,-2517.590776,-1386819.494318,-87637.102894,-2098.715931,-90.236922,17435.147622,1354420.625000
3062,0,-0.000000,0.067981,0.067268,-2222.328347,-1398308.784091,-79905.469283,-1822.405185,694.169649,3841.654578,1354420.625000
3063,0,-0.000000,0.108652,0.048049,998.894651,-1409798.022321,-24498.447789,-3343.477245,185.080023,7881.048230,1394728.000000
3064,0,-0.000000,0.088316,0.048049,1183.323644,-1411438.829545,-36532.050426,-3636.224625,-454.943101,-5387.065408,1400333.500000
3065,0,-0.000000,0.088316,0.067268,1256.116931,-1410469.526042,-39958.368245,-2605.551605,297.516724,279.885765,1409160.250000
3066,0,-0.000000,0.088316,0.028829,-526.279965,-1400544.312500,-16287.800848,-4271.539162,347.358741,-731.562765,1400333.500000
3067,0,-0.115496,0.177426,0.026435,-80004.246322,-241162.847135,10630.036068,-193717.855208,-5207.946379,2730.372360,474780.500000
3068,0,-0.094432,0.180166,0.040028,-85707.125391,-270526.911328,-2389.437256,-239422.045313,2793.269596,7511.394434,510174.937500
3069,0,-0.096662,0.170236,0.026308,-66468.690696,-280209.342685,-10066.926225,-236766.544744,12705.492948,7564.823952,474780.500000
3070,0,-0.067819,0.181939,0.083335,27652.734794,-159792.916097,56068.585754,-98062.020996,-7544.893389,-7519.618337,515592.812500
3071,0,-0.089314,0.191935,0.089111,-221630.493319,-315684.907670,-24474.322998,-266111.349432,-2788.875916,1058.323447,515592.812500
3072,0,-0.082929,0.194778,0.102484,-277434.116294,-312231.002344,-28558.795557,-273564.728125,-6444.375127,3224.201282,538116.937500
3073,0,-0.076829,-0.076829,0.105707,49331.467907,-148731.092330,5060.827326,-48460.033825,-3112.868818,1875.811756,176867.484375
3074,0,-0.091106,-0.090940,0.086303,35762.867338,-141808.605431,16603.059388,-51734.634691,-3539.981150,-8076.602126,193100.125000
3075,0,-0.083847,0.180753,0.072435,-20969.019967,-215989.213030,25950.562125,-191747.871373,-1947.209096,-626.797433,340107.093750
3076,0,-0.106880,0.182000,0.073601,-99862.909738,-237185.763393,17964.803911,-220934.905692,3229.519515,1008.273129,345450.656250
3077,0,0.103129,-0.164237,0.063723,81290.159155,-467891.857812,35449.550615,-230120.912109,1273.133262,23438.998016,651513.562500
3078,0,0.087660,-0.174413,0.051091,158387.192028,-287127.371804,65950.786399,-54092.571333,-6539.239441,26501.161899,490119.687500
3079,0,0.097917,-0.186268,0.069097,-206463.062988,-633682.075846,-163419.167323,-293950.626790,-8415.428907,4074.473267,811036.875000
3080,0,0.033690,0.033690,0.067268,62639.159330,-232150.357572,25434.284799,25281.034086,2703.021332,4139.777607,204276.984375
3081,0,-0.204731,0.052184,0.090331,-43314.540109,-176856.094169,5441.317525,-114722.891881,-1413.694536,-1935.884280,322831.062500
3082,0,-0.149323,0.000000,0.086488,449636.926683,-763.821566,39204.314754,-3357.466959,-8508.260990,-847.590189,429948.843750
3083,0,-0.128988,0.000000,0.067268,464936.769886,-431.870302,15474.135731,-3831.719419,-143.642433,-268.648251,449441.156250
3084,0,-0.149323,0.000000,0.067268,458890.686080,547.666127,39251.980091,-4378.613538,2204.030702,-119.613524,449441.156250
3085,0,-0.205148,0.052092,0.051244,-40721.639788,-175269.330078,2194.035248,-118090.389788,823.564290,-598.405871,136064.281250
3086,0,-0.208970,0.033655,0.070463,-4733.792806,-238952.238281,-9313.825948,-116733.699544,-2915.789538,1898.519740,273881.468750
3087,0,-0.191885,0.029947,0.064057,34679.558197,-247324.534505,-13785.373067,-140213.372396,-966.861928,-2510.002293,371763.125000
3088,0,-0.205183,0.052217,0.070468,-42817.562354,-173157.563086,1750.302991,-118403.013672,-2235.665138,1620.244954,379620.968750
3089,0,0.141141,0.155271,0.083329,-129922.525844,-146137.500698,5114.228725,61087.363874,-7511.175882,-4989.337193,286506.968750
3090,0,-0.047097,0.205286,0.026354,-362700.319661,-246374.245117,12859.398570,9484.147628,-4284.919094,1729.543859,330004.718750
3091,0,-0.035321,0.191119,0.029702,-30656.996366,-217958.653251,61477.011370,181270.946847,-18508.830514,8839.604828,330004.718750
3092,0,-0.035504,0.196716,0.014074,-167820.724159,-345986.937669,15405.804021,166909.673715,-15154.612995,35954.655893,741483.625000
3093,0,-0.213782,-0.001034,0.075781,31186.964654,-345058.461806,-30996.219401,12358.433105,1152.651998,2645.868665,351019.906250
3094,0,-0.210489,0.011399,0.063912,40222.805859,-315672.810937,-23987.531413,-46039.824365,411.875690,1875.465488,333789.843750
3095,0,-0.211138,-0.015256,0.064199,43231.710266,-300254.191406,-19318.363342,65150.128276,137.681651,1361.393889,333789.843750
3096,0,-0.194805,-0.018573,0.070284,91481.782325,-258087.798077,-5983.521409,103866.672878,194.077756,-3687.999808,349138.218750
3097,0,-0.194636,0.006325,0.082974,182599.908614,-194600.802940,22519.200704,-32371.762228,-3565.796321,-345.098693,444505.093750
3098,0,-0.208180,-0.031669,0.064610,-11292.988485,-240804.413411,-12281.598582,126768.785156,-1397.919052,67.182624,309946.531250
3099,0,-0.208329,-0.030117,0.085756,-2758.239209,-237201.521094,-7845.500089,116320.235156,-2298.495594,-800.483045,309946.531250
3100,0,-0.076829,-0.076829,0.048049,47095.683512,-150783.078451,8976.331950,-51619.122803,-553.941796,1421.989169,204211.359375
3101,0,-0.062449,-0.062449,0.048049,52159.863636,-153565.372514,11975.190629,-52656.369673,-2312.792783,-1165.755201,211596.000000
3102,0,0.076748,0.076996,0.105390,79571.959961,-111003.051595,5721.349319,-12311.080561,1710.967726,-1205.184672,202036.812500
3103,0,0.061915,0.063182,0.087104,85396.916277,-103073.437781,18072.127202,-8120.937408,-2471.924939,-1030.507176,250991.343750
3104,0,-0.000000,-0.067981,0.086488,-1295.886647,-1238178.598214,-71498.938128,-1244.354475,-1015.929287,-23511.747768,1133550.125000
3105,0,0.089810,-0.091502,0.021538,24706.452045,-173241.632212,9155.640174,70068.652945,-8135.371108,8537.078651,195134.906250
3106,0,0.076829,-0.076829,0.028829,39263.424489,-162749.323568,7325.937406,60056.572184,-6365.874157,-1045.283638,246153.828125
3107,0,-0.000000,-0.088316,0.028829,-4114.676038,-1238600.990385,-13225.880585,-1452.718049,-575.671376,8620.053588,1244583.375000
3108,0,-0.000000,-0.067981,0.048049,269.899438,-1253505.221591,-60612.538935,-4087.415017,-217.258501,18493.721302,1233566.625000
3109,0,0.144806,-0.131316,0.083258,-105930.590326,-169134.870028,22423.712613,-214344.021307,-9863.495048,562.548135,446108.375000
3110,0,0.044722,-0.206512,0.051457,-59762.073730,-62277.445025,-558.645859,102821.858538,5634.586566,-9976.578851,105283.351562
3111,0,-0.116704,0.115648,0.052862,4706.261200,-184912.927612,9589.909220,-60400.811849,3326.071086,-10509.929011,209191.156250
3112,0,0.185908,0.060522,0.044780,-95935.425328,-345139.394531,-41106.237919,167733.287388,3507.737929,-2312.162467,295383.218750
3113,0,-0.125013,0.125106,0.067469,-104109.164588,-172589.133827,-10972.884296,-155640.480004,6417.614746,-1904.054688,85841.242188
3114,0,-0.067981,0.000000,0.086488,438660.691964,10685.137211,64957.839373,-2616.062980,17061.303973,373.308921,453590.218750
3115,0,-0.067981,0.000000,0.067268,446291.007812,14328.519073,69971.847266,-3930.642297,967.306616,127.071445,403374.937500
3116,0,-0.047645,0.000000,0.086488,397761.101562,-190536.866644,73810.131459,-9058.817915,25274.546442,519.985231,640414.687500
3117,0,-0.047645,0.000000,0.105707,411248.204545,-162107.436890,62321.298617,-2922.535932,35555.584917,1125.766276,644261.437500
3118,0,-0.047645,0.000000,0.067268,401880.569712,-155777.186002,73515.743615,-9897.012695,-1408.248041,-2365.597961,638682.812500
3119,0,-0.047645,0.000000,0.048049,411383.834375,-181369.758643,76535.482031,-7823.470764,-29335.254968,-3254.683978,647400.375000
3120,0,0.061721,0.061671,0.029896,79856.265910,-115817.227498,7538.515714,-18451.661336,1138.005616,2662.335022,168791.468750
3121,0,-0.106533,0.181009,0.012231,-94747.605469,-260879.669531,892.979749,-243639.167969,-3858.888254,-8535.768964,487350.406250
3122,0,-0.097548,0.167906,0.012391,-70541.740143,-274297.320312,3205.365036,-245260.752930,29534.564163,7443.888313,534312.000000
3123,0,0.185908,-0.060522,0.083219,-88329.768555,-370642.164062,-44913.195516,-170854.604818,-4556.043608,-4055.298501,409235.218750
3124,0,0.190851,-0.042229,0.083219,-48910.818437,-333444.112216,-40998.201544,-167022.391335,-2067.383053,-7629.823116,549482.562500
3125,0,0.190851,-0.042229,0.063999,-48705.118749,-339406.022135,-38557.773751,-169632.730469,-4.236154,2212.014285,331186.062500
3126,0,0.204538,-0.050758,0.089625,-54312.845296,-199363.684245,3062.326950,-125736.590169,-3151.189974,859.882723,205613.281250
3127,0,0.079771,-0.195496,0.051219,-131917.942694,-449266.604759,-116581.975009,-40159.093572,-4150.312666,-8702.102819,490119.687500
3128,0,0.080630,-0.186538,0.038439,-27481.270630,-421831.037354,-30534.231280,-64521.170837,-27571.131989,13140.881348,156642.500000
3129,0,0.074144,-0.179752,0.064114,154487.700858,-135373.023717,86227.603969,69511.314025,1698.961138,5541.432905,45072.546875
3130,0,-0.106282,-0.183043,0.102512,-129851.903143,-336116.705966,-22179.997514,331888.411222,4807.838328,-12043.587413,698324.250000
3131,0,-0.160181,-0.136684,0.089276,-60209.831900,-120978.435509,20266.724825,120046.000000,4878.583205,674.491629,221550.078125
3132,0,0.199018,-0.069436,0.089625,-66884.983317,-190122.664591,9215.954875,-109230.288249,-2142.242954,4399.123460,227263.453125
3133,0,-0.158243,-0.113663,0.107925,-78865.378640,-294473.315341,-29182.575473,204296.297940,-1950.113181,13294.296864,244802.828125
3134,0,-0.150902,-0.122054,0.067073,-109528.151164,-207720.750407,-4281.329753,232193.364583,-4665.953684,-2497.083954,689880.312500
3135,0,-0.193053,-0.032470,0.051884,330.078153,-255326.161222,-21607.305964,155553.568537,-257.613331,9048.530051,376839.968750
3136,0,-0.204941,-0.051344,0.044879,-47613.474135,-184553.621695,712.042725,117357.107272,-4413.245134,3188.266724,274022.843750
3137,0,-0.192603,-0.032734,0.082052,-11451.705287,-264674.478516,-28140.289533,154331.566406,-999.268364,-10867.570241,404122.593750
3138,0,-0.203672,-0.049996,0.064257,-49294.548556,-186616.837440,890.010329,113495.958534,-1691.882104,-1507.139852,232291.718750
3139,0,0.187151,-0.059807,0.016826,-89632.575950,-327870.371094,-17986.140525,-166545.176136,6923.903739,5044.632208,410377.281250
3140,0,0.087909,0.174594,0.108977,34167.714404,-243947.533838,21915.985779,180465.850659,43043.395020,-9582.946832,304438.281250
3141,0,0.080386,0.186277,0.115993,-73199.784439,-265412.455357,-2522.686689,216811.986328,23645.210379,2238.934518,413060.187500
3142,0,0.104382,-0.104774,0.086763,37648.363749,-165173.676107,36158.967122,71506.699056,4112.658061,-10320.447937,236483.468750
3143,0,0.105428,-0.104463,0.104487,46010.265869,-148368.584872,39871.019798,66287.324751,6146.424982,-24690.362948,671036.500000
3144,0,0.121645,-0.120558,0.104711,-69523.306250,-217770.304492,12467.616748,-54285.775586,6169.407767,-32220.658936,783701.625000
3145,0,0.119952,-0.120040,0.086527,-90036.964036,-237570.493089,7359.378268,-28039.260216,1893.532161,-14933.611962,869007.687500
3146,0,0.048070,-0.048070,0.048049,42134.901179,-162562.098257,28039.814960,67917.021184,2662.757697,-702.169874,355387.156250
3147,0,0.048070,-0.048070,0.028829,43594.316211,-170327.151367,19181.057388,67493.415039,5426.560847,-5714.900769,581433.062500
3148,0,0.048070,-0.048070,0.067268,42236.124268,-160702.028320,30722.547852,66643.265625,-376.876517,1407.343346,550800.812500
3149,0,0.062449,0.062449,0.067268,81335.383745,-105706.666992,18962.279419,-11616.930398,-363.299535,-784.410061,164433.359375
3150,0,0.048070,0.048070,0.086488,83488.266376,-112195.285006,39243.722637,-24502.540565,-4790.428359,-2407.016536,400266.500000
3151,0,0.048070,0.048070,0.067268,80340.855291,-103802.052557,35950.239657,-18464.889560,1663.897216,3251.222876,450941.625000
3152,0,-0.088316,0.000000,0.067268,461740.063702,74.992750,28889.316031,-3958.290276,-654.661031,132.643494,452593.343750
3153,0,-0.088316,0.000000,0.086488,463300.218750,-1214.453420,15580.250460,-2966.102694,3972.963454,75.543943,453590.218750
3154,0,-0.131905,0.142973,0.088853,-237345.422811,-269757.821615,-61957.878957,-125795.244995,-4791.879797,-3701.964396,280193.375000
3155,0,-0.114640,0.157390,0.086046,-184898.529541,-401946.843750,-80861.625712,-209425.914714,-643.766017,-7628.830954,456882.125000
3156,0,-0.122351,0.151917,0.069453,-264645.872721,-371105.831380,-103075.054372,-157032.948201,-41.324556,3731.437876,821662.750000
3157,0,0.076829,0.076829,0.067268,81487.348858,-103509.565204,12035.919894,-11364.572547,-1540.472711,-1532.912984,173127.625000
3158,0,0.091208,0.091208,0.067268,74311.660375,-102783.461670,17795.500656,-13762.023966,-2628.770551,-2990.792086,331712.375000
3159,0,-0.024031,-0.210270,0.048053,-81885.293905,-283687.341309,-71768.721375,-117987.559896,-8935.594432,-16126.360451,246687.734375
3160,0,-0.008523,-0.209875,0.031506,-52673.203813,-454160.095170,-78435.535778,-70042.719272,-6117.408195,-24176.399689,621732.500000
3161,0,-0.012633,-0.194741,0.044598,-17383.847656,-603849.362981,-69358.469858,-133721.439528,-10358.525456,-32103.635139,728509.625000
3162,0,0.190496,-0.091751,0.048413,-57432.655717,-90302.243089,31328.602453,-39434.903076,753.035448,-4639.096644,110263.273438
3163,0,0.199018,-0.069436,0.070406,-66522.760579,-186917.834493,7602.679047,-109106.892741,-2473.956149,-137.672217,409235.218750
3164,0,0.197799,-0.070395,0.049997,-73796.899872,-203069.699333,1953.610525,-113982.564209,1543.180101,-2031.345078,263122.812500
3165,0,-0.000000,0.128988,0.028829,-1154.744265,-1399614.734375,-22910.093852,-4100.064039,603.548001,22935.123657,1376014.500000
3166,0,-0.000000,0.128988,0.048049,1662.704533,-1401352.028409,-40311.581143,-2992.880209,1079.247573,17777.177268,1358544.250000
3167,0,-0.000000,0.128988,0.086488,616.867812,-1398100.513393,-39301.239851,-1857.333336,923.078734,-18510.661203,1338363.375000
3168,0,-0.000000,0.149323,0.086488,12190.910925,-1372949.018750,-76612.801758,-1488.297681,2204.860010,-36406.413916,1338363.375000
3169,0,-0.000000,0.149323,0.105707,2473.455735,-1389706.609375,-54657.389275,-2497.582525,1536.109718,-49562.272705,1405353.250000
3170,0,-0.000000,0.149323,0.067268,8358.567381,-1370005.549107,-91053.090611,-2429.082550,1699.843676,2634.199219,1338363.375000
3171,0,-0.000000,0.149323,0.048049,10568.155249,-1388289.204545,-70207.740634,-3817.597452,2458.382913,37838.422674,1346905.250000
3172,0,0.000063,0.169700,0.048088,-110135.687866,-1311140.950521,-161940.046387,-6170.544174,2684.786793,50700.515951,1104426.625000
3173,0,-0.000000,0.149323,0.028829,472.051267,-1406582.113636,-58010.219327,-4542.269742,3284.402793,49349.900391,1352333.375000
3174,0,0.000063,0.169700,0.028791,-149292.973608,-1343676.368750,-149434.290723,-4587.120239,6294.277087,72866.892187,1300841.375000
3175,0,-0.024339,0.192527,0.052171,-102493.148362,-308434.222130,40413.054688,230233.688702,-11397.993166,9292.470787,816278.875000
3176,0,-0.013970,0.197179,0.069642,-134348.976829,-475307.918324,27866.344727,149931.272550,-3478.497437,-5555.489799,725027.000000
3177,0,-0.108652,0.000000,0.086488,460127.865057,-1283.626581,4416.955023,-3075.334958,-629.421717,-39.261267,461901.406250
3178,0,-0.108935,-0.000111,0.104988,444121.832386,530.269911,589.571100,-3397.677507,-2202.745518,98.203863,425726.781250
3179,0,-0.179289,-0.110959,0.102801,-36831.387507,-135917.681559,13342.923075,67315.082642,3922.986174,3983.769883,91447.210938
3180,0,-0.169827,-0.127421,0.114043,-27372.366667,-128487.384245,10345.545801,89876.636963,5029.318026,2832.653268,338535.375000
3181,0,0.156075,0.113805,0.108198,-88133.362142,-334076.718750,-32644.320145,229695.873698,8357.401433,-9541.431356,297311.500000
3182,0,-0.105587,0.105587,0.086488,84919.851713,-102424.304087,32544.743784,14985.187901,-1770.279568,11617.700599,189359.078125
3183,0,-0.091208,0.091208,0.067268,90089.192827,-98446.157493,17573.507413,2575.696437,1442.808535,-2558.693829,161805.000000
3184,0,-0.105587,0.105587,0.067268,80819.791992,-81892.907377,40566.714900,10458.022341,4290.830832,-3063.956589,85841.242188
3185,0,-0.091208,0.091208,0.086488,86150.117543,-101113.433949,14455.239946,4792.520763,-1069.485877,4229.147288,157793.000000
3186,0,0.062449,-0.062449,0.028829,44054.204834,-163423.326986,10538.328362,60238.907227,-890.603459,-2310.897634,201148.515625
3187,0,0.062449,-0.062449,0.048049,42376.159801,-158549.076172,15435.454990,58481.118075,-631.243951,523.843184,336741.218750
3188,0,0.032796,-0.036974,0.010898,86406.708069,-195712.043457,32926.556274,-59181.340820,29706.953696,-24626.288879,570096.000000
3189,0,0.076829,0.076829,0.048049,85389.142127,-106431.014724,10054.937545,-11872.123817,-106.417182,-443.665450,173127.625000
3190,0,-0.163779,-0.104093,0.082863,-114475.867383,-333834.941406,-41585.736296,188183.310026,3501.247670,3413.772727,389226.093750
3191,0,-0.171294,-0.089174,0.068886,-129361.037638,-424902.106771,-63133.469065,221608.817383,458.582734,-271.271517,446939.937500
3192,0,-0.148547,-0.126598,0.049670,-100101.723769,-181751.241211,6785.674392,215085.102764,-5505.378792,-3335.266664,385264.156250
3193,0,0.190851,0.042229,0.044780,-56102.137888,-324476.140625,-38962.789131,173404.106971,4216.361601,-12199.406851,531390.375000
3194,0,-0.108802,0.106496,0.045238,108084.292969,-89028.951216,41450.007391,7303.444824,-1050.506339,-15231.362502,209191.156250
3195,0,-0.000084,-0.047178,0.048370,40373.811711,-1115277.658482,-107960.752511,-666.206124,2082.284581,30254.568481,1236754.375000
3196,0,-0.000000,-0.128988,0.105707,-1748.568581,-1243363.801136,-8017.325527,-1406.104829,-371.898127,569.614363,1208160.375000
3197,0,-0.000000,-0.149323,0.086488,6759.745463,-1255705.880208,-40692.551005,-1493.195984,-184.512864,13985.995811,1206214.500000
3198,0,-0.000000,-0.149323,0.105707,-4304.536014,-1242028.977273,-39157.072110,-2044.024375,-2206.845933,16137.307001,1212745.625000
3199,0,-0.000000,-0.128988,0.086488,2119.412508,-1263066.494318,-11937.522582,-1080.735531,192.920404,1838.598366,1257519.250000
3200,0,-0.028695,-0.207025,0.102030,-86709.974365,-230299.764811,-56619.445414,-141813.858398,9700.525071,18028.987854,283010.156250
3201,0,-0.016530,-0.211069,0.101954,-64450.209210,-403732.939063,-104493.675000,-91485.688281,2992.273390,31595.328958,489780.812500
3202,0,-0.000000,-0.128988,0.067268,20.774131,-1273386.473214,-23013.488708,-1577.912978,244.193007,-2422.738652,1277314.125000
3203,0,-0.000000,-0.108652,0.067268,468.002181,-1277603.443182,-8263.860367,-1480.303904,75.030655,-3148.992279,1277314.125000
3204,0,-0.000000,-0.108652,0.086488,837.518844,-1267001.239583,-6084.380166,-1309.799803,-228.251980,-4661.193822,1277314.125000
3205,0,-0.000000,-0.108652,0.048049,760.058997,-1267444.178571,-7904.039341,-2155.005198,-115.487214,97.788196,1268483.625000
3206,0,-0.000000,0.067981,0.048049,-1965.481756,-1385460.270833,-81541.503743,-1528.428202,446.872578,-13279.036087,1319728.750000
3207,0,0.076829,-0.076829,0.048049,38745.070890,-155026.365986,14005.661162,58463.453876,-990.377594,4742.920074,211868.734375
3208,0,-0.105587,-0.105587,0.048049,48708.167812,-151083.075056,36518.737584,-65579.089983,3207.704841,7938.552965,225218.718750
3209,0,-0.105587,-0.105587,0.028829,50402.958105,-156352.848438,27752.946277,-61399.450977,5275.383549,17510.261426,222425.593750
3210,0,-0.091208,-0.091208,0.048049,46123.541903,-154571.651326,11837.497736,-51268.522905,1189.830899,4995.072557,206205.390625
3211,0,-0.091208,-0.091208,0.028829,45041.984553,-157529.473842,10309.411011,-54799.318359,1658.428187,7354.947052,429190.218750
3212,0,-0.182845,-0.069041,0.070538,-87314.447754,-335292.137556,-38039.576625,154390.185965,-1542.354660,-1156.770817,384048.250000
3213,0,-0.076829,-0.076829,0.028829,46179.332682,-156892.322266,4054.344622,-55280.811279,1295.872698,1144.324746,205988.343750
3214,0,-0.121504,0.120570,0.105149,-53385.811035,-166805.610352,6921.187073,-104425.580485,-7464.435097,12869.649806,842186.812500
3215,0,-0.169700,-0.000063,0.067230,423927.865885,-8445.029709,80280.364339,-5289.597918,-455.750802,-2260.358669,450131.968750
3216,0,-0.169700,-0.000063,0.086527,415142.877841,-6377.624828,85082.814586,-4176.565696,-19938.900574,-1388.478446,436888.312500
3217,0,-0.128988,0.000000,0.048049,459507.771635,-679.719191,10964.036695,-4392.433275,5011.803268,-139.544792,465619.437500
3218,0,-0.149456,0.000030,0.049670,452054.118750,1919.545193,45253.550977,-4879.904325,11746.202847,721.009109,409153.781250
3219,0,0.171290,0.000243,0.106452,386374.779018,-44091.392644,61135.338562,1870.826545,28475.693917,361.100450,318911.468750
3220,0,0.067981,0.000000,0.048049,464100.593750,14092.357779,61963.191369,3552.552838,13747.539483,-821.094046,347463.187500
3221,0,-0.091208,0.091208,0.105707,81406.101074,-101583.942708,10471.851898,9233.369700,-1509.726119,8335.472885,169660.375000
3222,0,0.149234,-0.151035,0.120170,-78108.823753,-92038.258256,15000.762429,-81666.957286,-21009.126199,-11017.996779,140338.000000
3223,0,0.143925,-0.153444,0.101657,-114255.686632,-148580.517470,19721.251153,-82058.969984,-21340.076226,-23168.228421,302998.625000
3224,0,-0.048070,0.048070,0.086488,85385.820964,-101574.243001,41619.801605,17204.775564,5540.736394,-10369.232198,174965.250000
3225,0,-0.000000,-0.128988,0.048049,1737.511840,-1270547.431250,-14241.798401,-1910.151469,-325.487376,-4784.642259,1261767.750000
3226,0,-0.000000,-0.088316,0.086488,1089.723973,-1269588.994318,-17765.832802,-1364.249079,-312.053376,-9604.441326,1263764.500000
3227,0,-0.000000,-0.088316,0.067268,262.661722,-1269958.880208,-27317.698893,-1715.087177,237.835659,-3493.548620,1269633.625000
3228,0,0.178034,0.079244,0.086162,-107464.703576,-322923.520433,-35061.666944,166967.427133,-4624.368855,-5832.088020,434497.625000
3229,0,0.047959,-0.205131,0.025917,-85130.286102,-85837.502848,-20841.922298,79792.095827,8221.140274,-8190.936214,149171.109375
3230,0,0.065455,-0.184161,0.044190,96831.848899,-63491.983691,64281.501940,86373.612971,-17290.789343,-5012.021174,490119.687500
3231,0,0.062404,-0.201794,0.051222,-92686.069984,-69484.149173,-12251.016641,37848.686068,1519.247447,-5322.714602,194677.453125
3232,0,0.072159,-0.198055,0.025692,-184036.888849,-229796.197647,-78326.665651,-51325.068357,-2378.428112,34034.475050,350505.343750
3233,0,0.043818,-0.192761,0.012825,18897.351224,-9641.769114,35399.830933,118932.821555,19999.080104,4607.706266,102285.250000
3234,0,-0.000000,-0.108652,0.105707,-568.258571,-1243192.119318,241.055083,-1374.666038,-429.275904,-3352.862285,1248647.750000
3235,0,-0.091208,-0.091208,0.105707,52807.724254,-125852.970881,11987.769087,-48222.547763,-7739.979908,-4781.929091,305742.718750
3236,0,0.087909,0.174594,0.070538,42681.183594,-267020.248935,38460.687167,175298.754880,3050.986483,766.091793,355733.593750
3237,0,0.090117,0.190512,0.083351,-209956.002116,-374413.776693,-38073.001760,263757.619466,4816.878756,15435.596649,784286.875000
3238,0,-0.000000,0.108652,0.028829,-0.089856,-1396578.643750,-8360.838696,-4403.737030,108.899274,10549.422192,1407854.125000
3239,0,-0.059965,-0.203569,0.104953,-132570.188585,-158992.834439,-52506.278076,-43561.993954,2915.084968,18121.000434,126724.398438
3240,0,-0.188092,-0.048599,0.079325,-76632.565430,-341136.265067,-47829.318848,154835.030692,134.579514,-6263.767563,384048.250000
3241,0,-0.205289,-0.051027,0.086299,-44914.755605,-184910.337240,2051.610232,116182.904948,759.144863,-567.241302,309946.531250
3242,0,-0.199106,-0.069434,0.093293,-52558.091732,-151019.588672,10709.849032,84672.759692,110.537136,626.568096,230572.890625
3243,0,0.076829,0.076829,0.086488,76119.302539,-104411.937891,10269.688092,-10559.217181,2503.025544,1992.169522,160359.125000
3244,0,-0.098012,0.167684,0.088990,-81935.921165,-274212.871449,-8866.356101,-235321.847301,-10053.968348,-7866.780684,456882.125000
3245,0,-0.097883,-0.169956,0.091483,38319.329491,-347587.277644,20249.553260,238835.147536,-3572.741342,-1284.582831,768883.125000
3246,0,-0.096636,-0.170393,0.108757,54480.719128,-323849.775781,37105.420410,239630.227734,-8952.719290,-19244.238818,441474.125000
3247,0,-0.000000,-0.088316,0.105707,-939.501821,-1245602.520833,-11555.045486,-1483.517854,-904.782434,-8521.319373,1254108.125000
3248,0,0.184921,-0.060484,0.064110,-93824.916211,-384301.782422,-47972.868970,-171438.796094,584.404841,1577.499697,444575.906250
3249,0,0.204538,-0.050758,0.070406,-52386.013334,-197686.697115,2400.554528,-127263.500000,-1056.639110,-1121.849377,331186.062500
3250,0,-0.067517,0.002593,0.015223,403299.918527,12456.264997,29737.017371,-907.754379,-16566.088058,-3693.916467,383171.937500
3251,0,0.001808,-0.210535,0.108859,-55463.306656,-503480.781250,-96023.266968,-8679.672404,3116.339254,41502.905802,489780.812500
3252,0,0.048070,0.048070,0.048049,79748.309721,-102544.073017,37746.412616,-21341.194749,8622.785104,3017.340445,171098.218750
3253,0,0.062449,0.062449,0.048049,83657.459920,-105399.750229,14481.317220,-11114.591390,1685.024380,1186.412138,228881.375000
3254,0,-0.000000,-0.149323,0.067268,1298.428789,-1259436.551136,-67799.064897,-969.853094,165.485664,2447.748111,1188261.250000
3255,0,-0.000000,-0.149323,0.048049,425.934941,-1248115.144231,-56038.830951,-434.298293,95.863615,-12587.747976,1232923.750000
3256,0,0.067981,0.000000,0.067268,474505.769886,14658.058311,65446.993963,6141.857644,-1427.975229,631.013826,469386.468750
3257,0,0.067981,0.000000,0.086488,488424.235938,8826.398645,63468.482520,6771.314185,-14185.751721,2366.267520,467887.781250
3258,0,0.088316,0.000000,0.086488,484850.175481,-1375.987021,22611.106219,4399.960794,-3822.880829,1557.541781,467887.781250
3259,0,0.088316,0.000000,0.067268,489658.090909,-998.944285,25557.722745,4026.591603,-390.649314,595.660467,469386.468750
3260,0,-0.128988,0.000000,0.086488,460167.727865,-1305.853274,9332.593262,-3204.290665,-4561.462040,-153.494687,467774.156250
3261,0,-0.130899,0.000206,0.104673,444390.812500,706.142684,8133.718295,-3024.354763,-5273.383971,-264.053308,422015.093750
3262,0,-0.150892,-0.001918,0.110412,437986.032552,5339.237775,33268.209391,-3457.238004,-15157.069099,-58.614362,399493.843750
3263,0,-0.178340,-0.081516,0.083926,-100870.436646,-340566.836263,-35493.032939,169566.445638,718.646586,2210.218844,682275.187500
3264,0,-0.188611,-0.093798,0.089483,-55913.776629,-165082.048131,8890.303992,86078.149972,4874.170567,1792.343148,389226.093750
3265,0,0.167431,-0.125566,0.032226,-34292.390358,-180844.062725,17169.838492,-112083.300706,5130.534792,899.826360,233305.734375
3266,0,-0.128514,0.001604,0.026624,434054.223011,-1799.571705,5344.157121,-4046.784725,3665.600038,-639.793074,426776.500000
3267,0,0.091208,-0.091208,0.086488,37975.052246,-165498.144580,18273.490259,60709.726562,720.844122,-3962.390334,217399.640625
3268,0,0.092753,-0.089541,0.110671,52562.220703,-151795.692618,17917.223210,52725.915179,1224.827545,-8843.888079,195845.375000
3269,0,0.091208,-0.091208,0.067268,40624.813477,-167058.844478,21342.117619,59978.249249,-1617.822561,2090.360305,211208.843750
3270,0,0.076829,-0.076829,0.067268,42280.715930,-160643.131641,13484.166553,58777.707031,-2917.729016,1684.827578,211868.734375
3271,0,-0.170975,0.000161,0.104812,386194.175781,-26689.339882,70332.557007,-3174.142273,-30229.417216,972.674205,421996.375000
3272,0,-0.080509,-0.176554,0.089692,184662.149680,-210704.892401,74529.683616,47558.856712,-10612.398315,3957.524199,602633.875000
3273,0,-0.040030,-0.038488,0.016118,-11256.564453,-197329.199002,18232.204083,-53578.660807,-21653.505951,-6209.834934,395879.437500
3274,0,0.023480,-0.199044,0.013807,-28479.820552,-346093.908162,-10213.459473,161188.624023,27222.216490,-27536.435959,303369.500000
3275,0,-0.158829,0.113994,0.044780,-84702.185420,-262426.132812,-25506.276595,-196363.974609,3026.561432,4776.560506,659391.562500
3276,0,0.088316,0.000000,0.048049,483521.522135,-2255.828811,14981.443504,3636.483839,3106.424602,267.640389,472921.875000
3277,0,0.136281,-0.162546,0.045625,-73852.772522,-246786.696665,27731.011263,-106836.159518,2924.185624,11902.375601,416300.968750
3278,0,0.140737,-0.156427,0.031389,-109131.610158,-177433.361165,15285.241109,-83247.990662,19596.056740,6646.222504,133584.187500
3279,0,0.074621,0.198215,0.109016,-371267.600497,-368099.233310,-49658.871083,207069.677468,1360.074246,-1325.586293,450560.468750
3280,0,0.069777,0.182142,0.102486,39833.333740,-178710.011922,52347.254883,90197.024780,26571.213786,-5406.360738,333039.062500
3281,0,-0.105587,0.105587,0.105707,83844.875977,-94399.025781,31264.612781,15069.504211,-4343.506200,16923.539136,464366.625000
3282,0,-0.076829,0.076829,0.028829,88454.096191,-94463.244141,8086.788635,3162.274977,1975.923174,539.071709,172167.078125
3283,0,-0.158829,0.113994,0.063999,-82725.007268,-252306.507812,-26706.948812,-198869.151042,637.007879,1286.897261,651113.250000
3284,0,0.088316,0.000000,0.105707,463217.056818,-52.685497,8443.970465,3234.065820,-1976.564370,1980.870730,467387.750000
3285,0,-0.049792,-0.188520,0.082216,84274.178295,33923.826039,74318.760554,-125424.721768,3848.441570,-290.849367,331593.125000
3286,0,-0.120675,-0.120331,0.027657,-87302.324623,-205266.958083,1502.764404,76073.384916,1541.606889,22120.606558,472135.937500
3287,0,-0.120850,-0.120967,0.049092,-104245.909892,-218769.129476,900.137634,84070.987630,3992.054021,5197.543025,847338.312500
3288,0,-0.182551,-0.065700,0.096778,-99594.658398,-386256.177344,-40499.125049,183020.637500,5702.188657,-7614.207004,384048.250000
3289,0,-0.000000,-0.067981,0.067268,-3059.342962,-1243195.776042,-74733.299967,-2340.820699,668.877867,2543.101409,1217757.125000
3290,0,0.108977,-0.000306,0.028929,463905.592448,1359.417088,165.152977,4314.689967,-1871.171173,599.446444,478845.875000
3291,0,-0.120030,0.120244,0.085266,-50863.497721,-171281.589762,-1575.872396,-98495.764715,-821.050494,4009.684733,189359.078125
3292,0,-0.000000,-0.088316,0.048049,-1568.332569,-1262442.500000,-22946.558644,-1940.566688,-90.500744,5831.661051,1261457.750000
3293,0,-0.000000,0.088316,0.086488,918.031128,-1406582.035714,-36078.163365,-1451.710084,387.838169,4359.034149,1354420.625000
3294,0,-0.000000,0.067981,0.105707,-7010.252563,-1377300.697917,-57867.229772,-2858.729654,421.093582,23220.303734,1276506.125000
3295,0,-0.000000,0.088316,0.105707,-1195.964966,-1391224.006250,-14452.157507,-1821.912781,420.564369,-836.617578,1399244.000000
3296,0,-0.076829,0.076829,0.105707,79118.071911,-98174.069247,3281.125772,9451.782060,-1492.086211,1590.770300,138647.109375
3297,0,0.105587,-0.105587,0.067268,37102.809634,-160559.738882,48074.073392,77623.274639,-4079.363737,726.265829,200912.640625
3298,0,-0.047518,0.000159,0.029354,415939.660511,-174108.733942,58808.608975,-11011.316994,-36712.112527,3979.346413,663409.750000
3299,0,-0.000000,-0.128988,0.028829,-1775.001399,-1251131.645833,-9591.513250,-2196.007867,-322.400764,-3244.137761,1237924.500000
3300,0,-0.000000,-0.108652,0.028829,-620.165782,-1244703.743750,350.448109,-2300.362051,-178.604107,1539.876064,1249474.500000
3301,0,-0.090719,0.001068,0.109654,441350.120192,384.449245,11502.088266,-3981.688188,1287.910251,-132.345305,446554.125000
3302,0,0.047181,-0.000844,0.089469,436530.011364,-165766.039373,72875.662908,2848.688998,-26702.093595,-2040.257141,369348.812500
3303,0,-0.048070,0.048070,0.048049,92243.965554,-101562.953835,39770.779452,11990.793679,-5282.460587,3780.823653,170315.812500
3304,0,-0.048070,0.048070,0.028829,89073.505534,-98421.502279,29075.457479,13029.049042,-5494.813787,12610.732117,408817.312500
3305,0,-0.033690,0.033690,0.048049,53227.378906,-192647.471946,32232.775169,-43220.127131,-8894.660717,6194.997941,291309.218750
3306,0,-0.032823,0.032898,0.029606,73833.827237,-219322.656605,28464.756303,-58343.374956,-23544.793431,15335.914506,423893.750000
3307,0,-0.033690,0.033690,0.067268,65914.156550,-213728.808594,29966.187838,-42108.090407,663.469844,-2707.449209,291309.218750
3308,0,0.185326,-0.059172,0.046157,-96888.064355,-399562.330469,-47867.073633,-179619.560938,5121.542438,12075.749936,405738.968750
3309,0,0.175168,-0.085997,0.044206,-118339.678630,-359209.097982,-39231.347046,-170793.365153,5604.663653,650.755473,445712.656250
3310,0,0.203120,-0.050715,0.050877,-50237.039426,-211894.328451,2384.832811,-127033.108398,3080.401572,1762.865292,263122.812500
3311,0,0.191581,-0.035590,0.046010,-1919.601640,-326046.494591,-29960.912962,-166938.137320,-539.425250,14798.204134,366919.937500
3312,0,-0.000000,0.108652,0.067268,1444.723411,-1412897.744792,-27055.842367,-1793.775973,340.467026,-315.450981,1393117.375000
3313,0,0.070608,0.182324,0.083219,53450.553489,-169222.167614,68444.330605,63492.332098,10325.238706,4896.606426,333039.062500
3314,0,0.173887,0.086489,0.044837,-122999.048077,-347033.591496,-43738.115291,169815.810622,3822.670431,7515.232969,660329.250000
3315,0,0.200738,0.066639,0.056607,-45701.859619,-134494.795461,19595.191297,85931.635905,1324.925405,-3596.380572,295383.218750
3316,0,0.090117,0.190512,0.064131,-207085.246419,-376848.125651,-37659.089010,263512.240234,3341.182572,2253.653702,693623.437500
3317,0,0.070608,0.182324,0.063999,57854.023127,-164366.961555,71798.598588,57962.053800,-2731.426012,-1662.153182,77615.468750
3318,0,0.033690,0.033690,0.086488,54003.293945,-236429.199219,26280.761963,35850.302344,-17985.128015,5369.214136,649636.562500
3319,0,0.190705,-0.091557,0.089685,-54824.098868,-97474.185040,28610.413527,-50312.405649,-2644.222310,5401.332251,127583.218750
3320,0,0.033875,-0.034427,0.104550,18790.204945,-259700.280540,17035.676125,23553.119762,-21589.693200,10209.700412,244197.781250
3321,0,0.000883,-0.172182,0.028291,-98569.636606,-1071995.718750,-110942.921326,-3185.716027,514.834406,-50969.046011,1179021.250000
3322,0,-0.000000,-0.149323,0.028829,-9439.935009,-1235752.028409,-44133.558683,-457.677811,-1262.910139,-20855.282247,1254635.125000
3323,0,-0.000000,0.108652,0.105707,-700.717105,-1391903.755208,-10164.294525,-2173.972569,428.955057,-11348.829866,1385728.250000
3324,0,0.000063,0.169700,0.086527,-119547.600998,-1229494.383929,-159806.680455,-13649.829206,-273.844062,-51533.628104,1247542.000000
3325,0,0.087929,-0.192542,0.085437,-260948.434012,-623300.269531,-186517.915039,-196027.686620,8321.045829,-2478.968366,173683.984375
3326,0,0.072778,-0.197757,0.069538,-125635.116846,-273011.034052,-80250.361279,-7458.819713,-1344.494739,12397.342847,844293.062500
3327,0,-0.012032,0.195234,0.032059,-130841.477865,-535664.238281,-3545.785919,123891.602160,-14647.681824,23281.766932,443630.093750
3328,0,0.186529,0.087605,0.067327,-82315.411119,-221757.063592,-8744.138991,109364.936061,1929.548252,-343.983214,660329.250000
3329,0,-0.000000,0.128988,0.105707,-1689.803464,-1392101.000000,-17804.650841,-1278.828405,672.936383,-22912.498340,1391246.875000
3330,0,-0.000000,0.128988,0.067268,1928.241753,-1401875.840909,-38859.944869,-2810.927247,665.962395,805.099970,1399989.625000
3331,0,0.002158,-0.173450,0.103367,-120253.613780,-1115720.911458,-122103.327250,-1512.342153,-4322.910203,40040.537730,1222649.250000
3332,0,0.072789,0.198087,0.089642,-322492.661208,-334599.095065,-35510.678326,147939.679185,2752.735014,10564.550999,487658.781250
3333,0,-0.062449,0.062449,0.028829,89752.918799,-97859.386072,11375.712329,4078.326941,-265.293246,5387.809967,166339.000000
3334,0,-0.192282,0.031051,0.083252,12408.231046,-252379.338942,-18814.074162,-145505.718450,-3289.105625,8172.043232,376357.468750
3335,0,0.050580,0.205138,0.085662,-460862.814453,-250922.433919,-861.995158,38595.442632,-444.470942,-3110.019997,312376.406250
3336,0,-0.105039,-0.104961,0.073146,54520.185528,-126272.196740,40807.188971,-53234.964168,2059.529446,-3518.028203,373200.781250
3337,0,0.116812,0.118291,0.089704,-44293.980164,-207063.832209,-5584.259688,59043.504972,-2421.428257,12662.860906,841235.937500
3338,0,-0.048236,0.186571,0.046854,49382.406686,-49576.494485,109566.794727,60512.308984,1957.820105,-2853.299060,330004.718750
3339,0,0.000843,-0.182990,0.011345,-33597.712394,-803033.142857,-18603.374451,205.597307,4401.540257,-47802.770543,672459.562500
3340,0,0.070608,0.182324,0.044780,63446.575373,-160140.270519,60664.363109,66367.004661,-17905.855225,-5985.809631,398698.031250
3341,0,0.072159,0.198055,0.070406,-309957.339431,-301537.314960,-26919.441885,130677.643545,-916.785432,2227.147785,312376.406250
3342,0,0.047545,0.205374,0.070406,-448792.517578,-243340.162354,3771.563599,29765.418228,-4390.779724,2304.382450,534573.562500
3343,0,-0.108556,-0.099566,0.117102,131624.742638,-61819.432993,45885.217912,7601.627589,-8684.784363,-19538.622887,305742.718750
3344,0,-0.021179,0.210887,0.047634,-241252.486537,-330892.825195,69589.989362,105776.187919,-8044.570465,4103.497633,403458.187500
3345,0,-0.023130,-0.211227,0.122404,-90085.803467,-352227.145052,-71158.074990,-128820.307813,15198.471042,42261.407902,499321.125000
3346,0,0.041824,0.190230,0.048016,-52993.521240,-87845.020732,83101.283203,-83847.495809,907.598295,1588.320429,181589.859375
3347,0,0.072159,0.198055,0.051186,-310934.706017,-292941.825871,-20715.388522,133501.348515,-83.327965,-4357.168181,802003.375000
3348,0,-0.021730,0.210153,0.026832,-238989.515325,-356458.498498,58370.673903,106042.163875,-2061.419781,17059.800359,429912.937500
3349,0,0.035108,-0.031253,0.121767,-16051.266541,-306233.302734,-15207.718979,72416.835083,-12394.455772,-6629.370552,278948.562500
3350,0,0.047517,0.205975,0.048024,-450574.781250,-246569.247904,4028.658243,33799.441676,-3247.371376,-4251.083997,556922.687500
3351,0,-0.205435,-0.051737,0.114978,-49909.647029,-161287.282659,7357.108996,114286.599309,202.142135,1293.525545,230572.890625
3352,0,-0.000000,0.108652,0.086488,1499.198312,-1411630.968750,-18116.916553,-1853.069343,543.440164,-7434.619250,1397365.750000
3353,0,-0.107137,-0.108729,0.102094,24443.765527,-171777.855794,27731.578687,-86064.781675,-1710.008453,-19728.130444,373200.781250
3354,0,-0.171716,-0.121329,0.089625,-29671.034570,-129119.327811,15493.404810,75103.272830,1240.408328,-24.633607,244802.828125
3355,0,-0.033811,0.036397,0.011779,103455.536377,-151371.798340,43705.854187,-109830.277618,-45889.909912,17829.728127,703353.562500
3356,0,0.006798,-0.212533,0.012662,-48503.862590,-489237.458333,-73476.100043,42963.190389,4312.387919,-57450.680271,496268.562500
3357,0,-0.208609,0.033552,0.089803,-10117.458130,-240798.655382,-11960.322076,-117708.411458,302.101496,-2.335666,304254.718750
3358,0,-0.119952,-0.120040,0.067307,-66641.072554,-243478.873580,-6062.228249,38891.933239,2499.001562,-2462.619612,225218.718750
3359,0,-0.123468,-0.118065,0.123877,-50475.831693,-139060.495944,24044.378296,82825.956127,-3272.602534,-25071.761916,482502.125000
3360,0,-0.033690,-0.033690,0.067268,9707.238208,-220564.896484,25568.972607,-7901.440967,480.621484,-1410.794556,260190.281250
3361,0,-0.036862,-0.030321,0.009060,-56753.384208,-404901.036830,-57573.701102,-111963.899275,-22013.436942,5586.750872,349869.687500
