nodeid,nodetype,x,y,z,S11,S22,S33,S12,S13,S12,mises
1,1,0.013043,0.031489,0.000000,240800.949609,-1140450.375000,-38112.306250,112210.438574,-1510.609259,-100365.203516,785813.062500
2,1,0.013043,0.031489,0.105093,132841.852958,-1053594.810268,-75769.601004,48239.160732,-15845.083235,73511.084821,767983.312500
3,1,0.100016,0.118461,0.105093,-345674.647727,-576722.894886,-96084.794922,123852.584162,5900.621271,-14374.197710,1136829.500000
4,1,0.100016,0.118461,0.000000,-489199.830078,-830402.235352,-176307.506226,170835.701660,14209.420654,-43392.103271,852153.687500
5,1,0.013043,0.154487,0.105093,-120186.726283,-1551873.303571,-21706.396763,-144707.241629,-42986.937500,-88737.262277,1906487.625000
6,1,0.013043,0.154487,0.000000,-85157.843040,-1348453.926136,-66595.492720,-202591.114347,73769.514560,131512.590021,1986527.125000
7,1,0.201138,0.000000,0.105093,51875.576497,-422463.156250,-24592.178650,22898.988363,6001.366740,-9571.050049,460490.218750
8,1,0.201138,-0.000000,0.000000,59453.252726,-418971.869792,-25876.992391,-22484.073568,-6351.235067,-8542.691895,459023.187500
9,1,-0.031489,-0.013043,0.000000,305806.167411,-577264.970424,24535.563058,-23608.609631,-49018.539314,596.543043,913453.187500
10,1,-0.031489,-0.013043,0.105093,299417.585880,-585155.753447,2267.654835,-22908.913028,25077.427648,-8488.718535,1006196.625000
11,1,-0.154487,-0.013043,0.105093,548421.952393,-198700.949341,25749.658508,59092.098389,-55687.503784,-42496.404251,885261.375000
12,1,-0.154487,-0.013043,0.000000,440774.014974,-272851.369385,58912.914307,103968.001546,58925.892965,27931.063883,842557.250000
13,1,-0.118461,-0.100016,0.105093,-35286.510550,-243326.417690,-646.463414,309533.854911,3200.025530,3898.606585,403076.593750
14,1,-0.118461,-0.100016,0.000000,-51133.964410,-172121.623264,3132.913520,317080.164931,-5379.809462,1834.769531,1187011.375000
15,1,-0.013043,-0.154487,0.105093,-61475.520020,-1103734.008681,-70086.571072,-173598.041694,51470.158203,50006.672418,1079992.625000
16,1,-0.013043,-0.154487,0.000000,-59834.553936,-1172978.468750,-80444.849234,-119996.726389,-60835.510930,-74644.748037,864007.437500
17,1,-0.100016,-0.118461,0.000000,-405097.854492,-881721.468750,-178890.355835,33144.708008,6180.865784,42310.701660,1021909.812500
18,1,-0.100016,-0.118461,0.105093,-321075.146484,-806060.473307,-152867.854940,-33902.713786,-1947.698771,-13072.686076,403076.593750
19,1,-0.013043,-0.031489,0.105093,165707.105913,-1112272.253196,-35842.977450,67316.896618,-4488.419700,-73053.041193,668273.562500
20,1,-0.013043,-0.031489,0.000000,254531.022656,-1010982.578516,-45210.523584,64105.049219,17973.824414,70844.426416,1795282.875000
21,1,0.013043,-0.031489,0.000000,237850.701693,-955141.169922,-49893.112012,-61864.316357,39254.883203,48844.395469,677937.375000
22,1,0.013043,-0.031489,0.105093,93885.258333,-889219.479948,-62567.795060,30385.831445,-5957.381283,-61195.768490,427819.375000
23,1,0.013043,-0.154487,0.105093,-62289.914442,-1120278.739583,-79019.962023,181831.952664,-57595.612901,50366.120117,1147188.875000
24,1,0.013043,-0.154487,0.000000,-19466.359902,-961508.402778,-109683.227539,245694.505642,55013.689616,-77485.692735,904808.875000
25,1,0.100016,-0.118461,0.105093,-379128.861861,-679682.656250,-87278.321067,-44091.629972,-7568.183683,37.016912,781124.250000
26,1,0.100016,-0.118461,0.000000,-395568.414062,-770102.825439,-191842.011597,-22406.882324,14523.299948,58105.119141,1040433.687500
27,1,-0.118461,0.100016,0.000000,17126.705295,-168122.122504,44048.249132,-422606.795139,-25659.330295,54692.632595,1025424.187500
28,1,-0.118461,0.100016,0.105093,-31398.269832,-189526.661659,22646.970252,-412081.588942,-27213.502103,1876.565279,1250545.875000
29,1,-0.154487,0.013043,0.105093,445521.959595,-298364.432251,43677.569824,-114560.708130,-50074.980652,40301.664149,815473.437500
30,1,-0.154487,0.013043,0.000000,364102.565104,-377814.888672,8024.933594,-151345.180664,43548.037720,-55163.886556,581959.937500
31,1,-0.031489,0.013043,0.105093,376219.596217,-487914.853721,48886.788086,-57935.736547,34472.574707,5631.067190,639408.375000
32,1,-0.031489,0.013043,0.000000,238244.079102,-730857.352539,-35198.136108,26864.578491,-40439.926292,-5141.922348,762833.187500
33,1,0.118461,-0.100016,0.000000,-34045.791775,-104343.609945,41454.471354,-263771.085069,15485.755208,38831.998047,998343.312500
34,1,0.118461,-0.100016,0.105093,3024.999414,-186516.245312,68612.915625,-437004.131250,-4355.964063,7162.353809,1073666.125000
35,1,0.154487,-0.013043,0.105093,425699.808594,-231598.815918,49418.993652,-83442.354263,58674.847290,-42905.399109,746774.125000
36,1,0.154487,-0.013043,0.000000,386178.060547,-246296.193066,45959.082520,-94025.579004,-63958.561426,50092.411316,621303.375000
37,1,0.031489,-0.013043,0.105093,297834.873047,-719963.115234,623.734627,31401.901566,-1458.376648,-21525.308578,1048057.875000
38,1,0.031489,-0.013043,0.000000,274783.645433,-656721.676532,-8947.825684,23108.799861,51040.379507,4134.214801,1063035.375000
39,1,-0.013043,0.031489,0.000000,218493.720703,-848279.751116,21914.857840,-130318.523926,-40985.079171,-45787.631138,851533.312500
40,1,-0.013043,0.031489,0.105093,281761.329102,-1130754.617188,-70998.204712,-90344.942383,-2064.820282,96696.666260,949221.375000
41,1,-0.013043,0.154487,0.105093,-143080.140492,-1517325.579545,-81172.562855,135840.222301,32873.613958,-70965.640914,1943479.750000
42,1,-0.013043,0.154487,0.000000,-134155.084517,-1351634.477273,-113205.454601,176980.483165,-57389.889915,103683.051935,1391062.125000
43,1,-0.100016,0.118461,0.105093,-403855.251302,-777304.362305,-161687.533325,-112965.205404,-27114.153483,1722.666219,737785.562500
44,1,-0.100016,0.118461,0.000000,-323831.199574,-633438.125710,-68629.408736,-157995.498402,846.986439,5992.902166,1025424.187500
45,1,0.118461,0.100016,0.000000,-78100.089489,-204530.776456,10503.346768,337941.321733,-1511.633168,-24261.739702,913840.750000
46,1,0.031489,0.013043,0.000000,288653.759511,-565425.472656,22171.016771,35791.209388,33615.093334,-4043.677599,464802.531250
47,1,0.154487,0.013043,0.000000,418490.389062,-222900.334961,55405.425586,93321.127441,-59087.478882,-29961.400053,770318.562500
48,1,0.118461,0.100016,0.105093,37123.394434,-102951.736914,77175.226758,482291.731250,26720.689331,-7629.699414,568680.437500
49,1,0.154487,0.013043,0.105093,476641.887500,-194145.357617,63371.724414,79152.675549,62684.372949,23040.033057,705487.375000
50,1,0.031489,0.013043,0.105093,338566.870312,-664575.537793,41919.605127,-2621.678369,-19113.686426,7674.820312,934303.750000
51,1,0.013043,0.031489,0.021019,206965.772550,-957340.078835,-5088.668457,155059.824285,9032.243966,-36522.415083,1007563.062500
52,1,0.013043,0.031489,0.042037,148361.835734,-931999.983724,-33817.304667,150032.274089,-3706.086085,-32128.507462,1260541.750000
53,1,0.013043,0.031489,0.063056,146716.777140,-981800.241496,-45750.357666,141256.218582,-7646.044495,13938.114405,1880770.875000
54,1,0.013043,0.031489,0.084075,147154.793652,-971951.811670,-44549.390820,136976.426172,-12728.132581,19992.808936,767983.312500
55,1,0.027538,0.045984,0.105093,263031.793945,11905.679688,134160.323730,141143.837708,-23272.801880,-117307.041016,485521.281250
56,1,0.042034,0.060480,0.105093,235778.777832,-67909.347656,99582.185913,111536.297913,-18504.937561,-73608.982422,310914.343750
57,1,0.056529,0.074975,0.105093,152481.160645,-204348.396484,37287.792480,17024.298508,-20085.440369,-22659.468994,335889.750000
58,1,0.071025,0.089470,0.105093,79735.019531,-278309.750000,-11192.741638,-88198.338196,-17395.656860,18026.981201,393286.593750
59,1,0.085520,0.103966,0.105093,-124448.640159,-439905.841518,-119275.652623,-255418.358817,-21183.032506,29220.678153,701704.250000
60,1,0.100016,0.118461,0.084075,-366721.793679,-592182.756392,-127060.697576,151832.964134,25188.556030,-6176.857267,966724.312500
61,1,0.100016,0.118461,0.063056,-397107.768555,-661956.712891,-202187.224121,90208.245605,6920.722641,-5131.178295,952316.187500
62,1,0.100016,0.118461,0.042037,-389587.242188,-679692.810764,-210537.835720,110866.392795,-6656.644391,11714.381399,952316.187500
63,1,0.100016,0.118461,0.021019,-410291.560954,-753805.380208,-189718.650608,143615.931641,-21261.887383,11344.376790,558071.687500
64,1,0.085520,0.103966,0.000000,-113502.296766,-455027.928602,-15498.083333,-68864.273438,3022.514106,-62414.033420,1003739.500000
65,1,0.071025,0.089470,0.000000,3185.179321,-323074.367188,-28378.918060,-179113.203613,20089.311646,7634.127014,404461.812500
66,1,0.056529,0.074975,0.000000,121583.108704,-235728.802734,-15484.317474,-102069.446899,197.492493,9392.826721,400724.000000
67,1,0.042034,0.060480,0.000000,187592.202148,-153793.327972,12391.632568,-24017.853149,-27278.361664,7423.808258,302861.375000
68,1,0.027538,0.045984,0.000000,297539.614583,-49821.791463,103686.768229,110460.703125,-12423.375977,1580.126139,464802.531250
69,1,0.013043,0.154487,0.084075,-67812.612482,-1147389.149148,-70427.707120,-166070.526767,-29109.351870,-96348.209839,1681674.250000
70,1,0.013043,0.154487,0.063056,-63418.167188,-856374.067773,-70221.287061,-192388.281836,-2831.500024,-24474.750195,923241.625000
71,1,0.013043,0.154487,0.042037,-70494.763281,-892182.326074,-77042.909912,-195157.590137,20213.687549,36860.286890,1012078.625000
72,1,0.013043,0.154487,0.021019,-100687.324219,-1135400.814453,-104239.693750,-169286.343060,27500.761597,120841.875879,1641127.750000
73,1,0.031957,0.151707,0.000000,146514.025977,-179771.054688,145603.617383,-233280.017969,52817.155615,8232.554688,693216.625000
74,1,0.050386,0.146620,0.000000,263974.904948,-169083.018229,103201.746745,-21412.997070,-31155.338460,20167.138346,693216.625000
75,1,0.068048,0.139305,0.000000,20838.667318,-364729.450521,8353.150635,268030.356120,-76494.163411,37686.740234,604127.312500
76,1,0.084676,0.129870,0.000000,-203317.093750,-684108.518750,-98958.049219,365390.596875,-32280.312793,19919.279297,1101229.250000
77,1,0.084676,0.129870,0.105093,-126064.176758,-490329.468750,-49629.731934,322915.398438,96614.857422,-96255.007812,687645.312500
78,1,0.068048,0.139305,0.105093,215490.163818,-233952.304688,18244.182861,140513.442871,75506.799805,-62154.394531,663204.375000
79,1,0.050386,0.146620,0.105093,301813.789062,-159989.454102,53030.938843,-13113.216471,34570.647461,-25815.809896,601140.437500
80,1,0.031957,0.151707,0.105093,160821.053711,-232451.746094,85426.396484,-262536.986328,-110697.147461,-20138.063965,183352.531250
81,1,0.013043,0.133987,0.105093,-8594.431641,-1863693.062500,-62469.418620,-17445.926860,-4816.753499,-59074.215820,1851805.625000
82,1,0.013043,0.113487,0.105093,10252.879456,-1851457.875000,-20097.791882,17028.334747,-1263.879517,-20873.721924,1825442.625000
83,1,0.013043,0.092988,0.105093,5808.402319,-1859166.700000,-6567.431702,12802.429590,43.918188,-4955.066748,1907997.625000
84,1,0.013043,0.072488,0.105093,13875.355916,-1867985.437500,-11107.529338,15228.554321,-7688.055094,19909.008626,1920076.250000
85,1,0.013043,0.051988,0.105093,-2100.434152,-1959982.553571,-98042.584996,23562.777902,-12389.218750,88411.064453,1891048.750000
86,1,0.013043,0.051988,0.000000,1117.863525,-1895060.781250,-108917.667969,11569.092651,-8495.487610,-72875.425293,1826889.000000
87,1,0.013043,0.072488,0.000000,10573.021851,-1862242.562500,-28412.537399,5369.623535,1690.142395,-14700.397255,1826889.000000
88,1,0.013043,0.092988,0.000000,8208.068192,-1862983.593750,-6335.101730,5341.490936,4258.393173,4243.035789,1855349.000000
89,1,0.013043,0.113487,0.000000,6982.782471,-1887796.203125,-6673.693848,2890.591461,4606.651459,22198.883545,1909765.375000
90,1,0.013043,0.133987,0.000000,-18863.275949,-1970357.446429,-42873.898717,-5781.504447,19596.915248,85603.554688,1986527.125000
91,1,0.200138,-0.020027,0.105093,3578.439331,-343742.768229,-11184.611593,-101565.266927,-7939.143840,3105.051453,389471.562500
92,1,0.197150,-0.039855,0.105093,-41550.497162,-221710.598633,6070.453186,-124602.871094,-8563.449262,14828.082275,210490.796875
93,1,0.192202,-0.059286,0.105093,-58460.847453,-44158.162109,23066.414632,-82969.194499,-11542.940674,13360.378840,210490.796875
94,1,0.185344,-0.078129,0.105093,-38195.055249,-33990.804688,33854.622070,-33935.462244,-3532.779004,10107.572107,193654.140625
95,1,0.176644,-0.096195,0.105093,-9095.080966,-51702.087158,34115.179199,-8371.911709,-12896.259857,-4359.796738,234242.078125
96,1,0.166188,-0.113305,0.105093,16300.756222,-77878.697754,15374.818359,5313.034993,-13661.122640,3959.005778,203070.578125
97,1,0.154081,-0.129289,0.105093,-38258.669108,-69678.214681,11069.562195,-47618.010254,-16585.720701,-11701.511068,270088.218750
98,1,0.140442,-0.143988,0.105093,-39199.541341,-88761.417419,10587.493866,-50708.415080,-24340.222778,297.863495,316512.312500
99,1,0.125407,-0.157256,0.105093,-37518.727865,-188236.924479,13800.212316,-99356.187500,-16061.546468,-16715.347493,372838.718750
100,1,0.109127,-0.168961,0.105093,-118296.077393,-291038.088542,9171.446599,-295872.057292,-41340.460938,-33739.450033,577456.625000
101,1,0.091761,-0.178987,0.105093,-476933.117188,-493399.213542,-59206.978790,-535120.442708,-30252.126648,-33559.393229,819849.437500
102,1,0.073484,-0.187234,0.105093,-708025.464844,-1027913.156250,-443421.632812,-481194.239258,24008.027679,135326.072266,1010010.062500
103,1,0.054476,-0.193620,0.105093,-211323.446615,-268920.924479,-122793.436198,64242.015218,-425.508219,48568.378581,170763.937500
104,1,0.034927,-0.198082,0.105093,-152166.121094,-224947.353516,-87792.857666,140174.004883,-13345.675964,46016.997559,341635.093750
105,1,0.015031,-0.200575,0.105093,-194714.430664,-497017.898438,-207519.703125,109911.179688,-17895.982239,97584.234375,472225.718750
106,1,-0.005015,-0.201075,0.105093,-173131.319661,-580134.171875,-172121.005208,-21130.581055,6159.443380,99190.062500,462274.718750
107,1,-0.025010,-0.199577,0.105093,-150012.124023,-413604.515625,-104245.339844,-100415.907552,16018.370138,57386.622884,497365.750000
108,1,-0.044757,-0.196095,0.105093,-143274.960938,-184958.328125,-78142.749023,-95455.298177,19221.846110,45557.905924,232451.500000
109,1,-0.064060,-0.190664,0.105093,-170436.614583,-226019.868490,-99494.243164,-26562.166341,7340.286631,44437.196615,177716.703125
110,1,-0.082725,-0.183338,0.105093,-476678.023438,-997207.250000,-442165.585938,252728.957031,-30085.813477,113552.574219,1084879.875000
111,1,-0.100569,-0.174190,0.105093,-551305.891927,-755522.489583,-198667.949544,655662.578125,5587.244629,-8440.005046,891612.187500
112,1,-0.117413,-0.163311,0.105093,-168291.881592,-361006.220703,26552.430783,325409.666016,44490.463257,-11911.398418,541215.250000
113,1,-0.133090,-0.150809,0.105093,-85766.453857,-236850.093750,42598.145386,150240.520996,27673.561897,-15777.405136,477377.750000
114,1,-0.147444,-0.136808,0.105093,-62458.631999,-145909.960531,27637.828491,106714.853516,29148.188761,-10544.726420,374935.281250
115,1,-0.160334,-0.121448,0.105093,-16768.364288,-183500.861023,35508.030518,83973.016907,19170.648132,6297.107849,396503.000000
116,1,-0.171629,-0.104880,0.105093,8216.012085,-95683.876628,36208.065918,20687.276123,22045.984701,-827.209391,213108.218750
117,1,-0.181219,-0.087270,0.105093,-11629.987915,3254.457520,34670.663574,605.255859,18092.414429,-1260.511276,215241.406250
118,1,-0.189008,-0.068793,0.105093,-30842.779297,690.009277,36557.788086,31557.862061,3928.358154,15912.159866,157570.984375
119,1,-0.194918,-0.049632,0.105093,-36563.133301,-156109.086304,19414.753143,107951.384521,-4226.710709,25381.853516,193041.828125
120,1,-0.198891,-0.029978,0.105093,-10599.742188,-274261.651042,-15438.112671,122578.230469,158.627401,16929.642782,418481.500000
121,1,-0.200888,-0.010026,0.105093,35417.764023,-390901.613281,-20988.851715,100588.009521,-9631.745178,9053.999180,484704.093750
122,1,-0.200888,0.010026,0.105093,37238.337850,-437146.442708,-27513.782471,-54752.087891,653.508748,3413.952922,452064.156250
123,1,-0.198891,0.029978,0.105093,-1139.553101,-330051.530273,-11558.993164,-128874.570312,4897.694336,-11966.513512,430342.812500
124,1,-0.194918,0.049632,0.105093,-47216.881226,-140107.417725,28594.343536,-116206.674805,5744.818848,-18067.325623,303842.562500
125,1,-0.189008,0.068793,0.105093,-87000.833740,-81536.554810,20671.054688,-63169.252930,-1150.934601,-12465.589844,127515.117188
126,1,-0.181219,0.087270,0.105093,-21553.841187,-72275.672852,36617.855713,-22578.464355,8054.998535,-722.143646,199119.437500
127,1,-0.171629,0.104880,0.105093,5633.630371,-66955.812256,35269.829285,-16709.069183,16540.411301,177.877441,52550.382812
128,1,-0.160334,0.121448,0.105093,-12546.517090,-117765.448120,16370.892822,-57939.970795,5135.837822,-11225.852661,357965.968750
129,1,-0.147444,0.136808,0.105093,-50818.051880,-90241.482544,34211.856812,-83915.265381,12026.378059,-7333.967270,113893.539062
130,1,-0.133090,0.150809,0.105093,-58588.471354,-133969.413086,23573.325765,-64545.970785,11801.851461,-15948.125468,187814.328125
131,1,-0.117413,0.163311,0.105093,-75856.699707,-257338.246094,21211.568726,-159908.822266,13397.222656,16858.005829,689547.062500
132,1,-0.100569,0.174190,0.105093,-305787.705078,-532289.415365,-9613.691406,-437919.328125,41269.377543,59942.051270,689547.062500
133,1,-0.082725,0.183338,0.105093,-703031.347656,-943126.031250,-115200.524521,-402549.324219,22634.925568,-4152.292969,1347616.750000
134,1,-0.064060,0.190664,0.105093,-934214.385417,-887389.604167,-55627.200846,-277501.789062,-23569.584880,-42162.303385,1141825.875000
135,1,-0.044757,0.196095,0.105093,-883796.197917,-739804.041667,-3140.346965,-97486.357747,-22924.639648,-57221.991089,823310.812500
136,1,-0.025010,0.199577,0.105093,-576965.406250,-749217.312500,42057.942395,68411.541016,-30944.963867,-81202.182349,714032.437500
137,1,-0.005015,0.201075,0.105093,-412383.562500,-834346.812500,96553.129496,45345.331543,-14995.024495,-81795.096029,899874.625000
138,1,0.015031,0.200575,0.105093,-385306.393229,-791579.604167,112961.554688,-9386.899414,9411.956746,-76253.685547,899874.625000
139,1,0.034927,0.198082,0.105093,-651915.273438,-823810.156250,46876.679199,-16899.202637,56858.386719,-32521.562500,831781.875000
140,1,0.054476,0.193620,0.105093,-801776.656250,-736834.338542,-24346.004883,138162.921224,47231.201986,-44278.299154,760322.875000
141,1,0.073484,0.187234,0.105093,-748160.781250,-859604.648438,-37614.685913,360559.758789,11787.338867,-66426.773438,1037007.500000
142,1,0.091761,0.178987,0.105093,-412841.865234,-491211.179688,-2211.994873,455993.980469,-20483.800018,-21924.374756,670785.000000
143,1,0.109127,0.168961,0.105093,-171378.567708,-269514.289062,12473.919922,265476.729167,-42888.180664,2142.849121,469510.343750
144,1,0.125407,0.157256,0.105093,-19130.132812,-128426.629395,38493.351440,77005.967285,-46164.860840,8859.781944,125277.617188
145,1,0.140442,0.143988,0.105093,-56533.582275,-70091.923462,23199.780762,56382.953125,-12266.306122,2136.136810,308991.125000
146,1,0.154081,0.129289,0.105093,-26244.408529,-26251.457682,13029.435791,27172.145996,-10256.101359,995.013672,137833.343750
147,1,0.166188,0.113305,0.105093,21768.166443,-53786.633789,40916.547852,5999.329915,-8411.930786,-5237.431763,278497.031250
148,1,0.176644,0.096195,0.105093,7572.408936,-42682.426514,33582.517395,-2116.366211,-6604.297340,-18194.216873,194668.718750
149,1,0.185344,0.078129,0.105093,-38706.662760,7967.415039,20891.179403,5053.889811,-18269.340373,-13786.752380,229856.750000
150,1,0.192202,0.059286,0.105093,-57579.254150,-29843.027588,28159.705193,66273.642700,-4974.726349,-8508.631805,226763.765625
151,1,0.197150,0.039855,0.105093,-46167.865560,-127761.019206,13061.465647,110286.884766,901.531169,-12641.094554,305542.031250
152,1,0.200138,0.020027,0.105093,29764.957194,-320255.244792,-13505.877360,94749.955729,6795.763509,-15091.903483,363385.687500
153,1,0.200138,0.020027,0.000000,17839.546844,-378206.183594,-20486.002930,74092.305664,5577.016418,1007.664520,405359.531250
154,1,0.197150,0.039855,0.000000,-2970.497803,-227899.291667,19161.931112,115742.692708,8194.456421,25246.374837,309843.937500
155,1,0.192202,0.059286,0.000000,-42511.757324,-44294.276367,33188.718262,71303.279175,14953.324829,30008.443115,253694.562500
156,1,0.185344,0.078129,0.000000,-47770.924438,-48098.231812,32914.380005,38827.188751,9664.977707,7457.596710,257593.453125
157,1,0.176644,0.096195,0.000000,-22071.169678,-63096.911621,10264.145508,5035.002726,13160.282918,5981.450439,113103.289062
158,1,0.166188,0.113305,0.000000,33151.533997,-34006.099854,38010.259277,1630.627441,12508.276001,8536.501297,227800.968750
159,1,0.154081,0.129289,0.000000,-7777.446289,-37390.987061,28775.303711,31508.598633,11562.302734,-1549.069771,251845.062500
160,1,0.140442,0.143988,0.000000,-41289.844401,-48440.308919,18599.497314,38050.448568,19564.389994,6327.875488,116566.132812
161,1,0.125407,0.157256,0.000000,-8730.536743,-118434.686849,39870.465983,58634.697428,8670.051575,6049.414510,325449.218750
162,1,0.109127,0.168961,0.000000,-91112.779582,-259537.098958,48587.705078,204609.862630,23557.693197,-10390.166646,630985.875000
163,1,0.091761,0.178987,0.000000,-314409.893229,-415869.080729,3320.355428,411880.088542,49906.573405,-40600.771159,630985.875000
164,1,0.073484,0.187234,0.000000,-764925.343750,-970009.421875,-83386.083992,370912.855469,17591.921387,-3461.537109,1016337.875000
165,1,0.054476,0.193620,0.000000,-879108.270833,-809031.947917,-21076.829427,158444.753743,-36041.914388,38191.071177,1016337.875000
166,1,0.034927,0.198082,0.000000,-718407.070312,-750136.492188,45410.692383,-12346.244019,-44065.097900,74799.896385,858913.125000
167,1,0.015031,0.200575,0.000000,-501336.104167,-820405.614583,102974.705078,-58219.445964,-41639.957357,78366.105021,858913.125000
168,1,-0.005015,0.201075,0.000000,-372697.078125,-844080.187500,109705.025635,37992.963053,-7703.282145,69451.857096,802288.062500
169,1,-0.025010,0.199577,0.000000,-523977.185547,-768424.171875,56472.150146,80287.844604,17092.029541,45247.629761,831803.187500
170,1,-0.044757,0.196095,0.000000,-696809.093750,-684134.390625,34279.830078,-23350.671021,30308.855103,64794.367676,733600.625000
171,1,-0.064060,0.190664,0.000000,-910671.265625,-886112.750000,-3273.366211,-261324.027344,58376.824707,64966.788086,1281903.375000
172,1,-0.082725,0.183338,0.000000,-746333.458333,-897073.473958,-57636.960286,-437810.174479,1929.791097,51331.451172,776809.937500
173,1,-0.100569,0.174190,0.000000,-344617.333984,-599427.890625,5507.083618,-469896.207031,-30279.461790,28901.056763,835695.375000
174,1,-0.117413,0.163311,0.000000,-142050.907227,-324984.158203,46250.836182,-232974.361328,-41201.200073,-17752.210632,541534.125000
175,1,-0.133090,0.150809,0.000000,-71395.847005,-168162.827474,43011.701172,-86138.173014,-37258.295247,-16384.765340,295919.718750
176,1,-0.147444,0.136808,0.000000,-29365.261963,-92533.075928,23833.083496,-71530.236572,-14956.005127,-1963.848022,348318.843750
177,1,-0.160334,0.121448,0.000000,-8213.268066,-69913.112061,34998.450195,-64575.634056,-19123.416748,5192.001770,276846.781250
178,1,-0.171629,0.104880,0.000000,2322.745117,-53281.767090,28184.730469,-20290.894615,-8013.449219,12695.225586,290770.468750
179,1,-0.181219,0.087270,0.000000,-7262.882690,35709.828125,41555.626953,5298.458984,-18829.466553,10318.434326,127061.195312
180,1,-0.189008,0.068793,0.000000,-46446.865723,-3669.277181,44588.076335,-23374.597656,-9515.969666,13564.775798,144746.250000
181,1,-0.194918,0.049632,0.000000,-55547.886816,-139202.902246,26478.260937,-121785.059375,345.842514,10275.122766,410854.593750
182,1,-0.198891,0.029978,0.000000,-158.352865,-259928.196615,-1767.464193,-131769.100260,68.922262,20150.983805,458486.937500
183,1,-0.200888,0.010026,0.000000,16703.569661,-407483.958333,-25739.017131,-83905.418050,-3650.028463,17583.198649,552735.812500
184,1,-0.200888,-0.010026,0.000000,45453.418274,-421951.539062,-9314.866119,85739.560120,-9340.887390,4483.819294,453673.562500
185,1,-0.198891,-0.029978,0.000000,-16476.741781,-311150.263021,-3239.499186,124516.561198,-9866.636281,-13334.001187,424114.218750
186,1,-0.194918,-0.049632,0.000000,-42526.056836,-176391.561133,20628.923346,115323.655859,-2963.641754,-11284.044617,317657.906250
187,1,-0.189008,-0.068793,0.000000,-54657.139648,-44265.982910,30729.460409,30422.823242,-8846.869527,-17387.085124,129887.632812
188,1,-0.181219,-0.087270,0.000000,-40688.686401,-76078.677734,34159.052940,31145.404053,-6097.631058,1143.216255,300822.187500
189,1,-0.171629,-0.104880,0.000000,4822.284959,-71734.264099,43130.599121,24594.205994,-14184.249649,4808.009674,73051.156250
190,1,-0.160334,-0.121448,0.000000,-38147.475647,-150822.014679,12824.139038,71191.815125,-10269.806036,4421.962866,314213.218750
191,1,-0.147444,-0.136808,0.000000,-66056.268539,-133811.637024,34054.543945,106132.024902,-21163.240372,2773.435364,158746.906250
192,1,-0.133090,-0.150809,0.000000,-75018.636719,-200720.454427,37407.693359,114153.276042,-26923.701288,-14306.657878,418943.750000
193,1,-0.117413,-0.163311,0.000000,-155113.483398,-348987.101562,16659.784668,263999.558594,-14939.399780,12275.714355,585715.312500
194,1,-0.100569,-0.174190,0.000000,-485400.320312,-721877.322917,-83619.778585,615510.609375,30104.655924,23578.830068,832360.375000
195,1,-0.082725,-0.183338,0.000000,-541089.959717,-1080219.464844,-365540.039062,413944.815674,23106.677162,-115340.085938,1011217.000000
196,1,-0.064060,-0.190664,0.000000,-116537.363932,-200110.248698,-81215.860677,2710.043457,22.600586,-64344.524740,160686.968750
197,1,-0.044757,-0.196095,0.000000,-168542.005859,-210661.901367,-72133.211426,-119590.046875,-12267.702209,-38228.440369,288572.625000
198,1,-0.025010,-0.199577,0.000000,-159383.559896,-392531.192708,-105463.567790,-111985.014323,-18622.006917,-54491.391113,276626.281250
199,1,-0.005015,-0.201075,0.000000,-162817.225423,-509022.046875,-172519.776693,-57527.896484,-22422.950358,-82417.609212,482471.187500
200,1,0.015031,-0.200575,0.000000,-222977.158203,-558197.570312,-234352.417969,87148.212891,8870.115967,-111268.777344,456568.718750
201,1,0.034927,-0.198082,0.000000,-207361.707031,-373913.570312,-174382.585938,126189.751953,20601.253906,-91538.835938,346570.250000
202,1,0.054476,-0.193620,0.000000,-177391.505208,-255207.020833,-88279.932373,72770.537109,15041.242330,-52588.000000,253888.890625
203,1,0.073484,-0.187234,0.000000,-419256.712500,-848233.078125,-292183.603174,-294964.589648,-16088.620081,-80441.428125,535030.312500
204,1,0.091761,-0.178987,0.000000,-657035.783203,-668646.557292,-191203.713542,-741960.026042,-39841.383626,-3959.776693,1009390.687500
205,1,0.109127,-0.168961,0.000000,-169672.022461,-351668.556641,7093.468750,-304284.615234,14775.718140,17973.058929,507250.968750
206,1,0.125407,-0.157256,0.000000,-47994.081787,-200725.014648,36211.401855,-127172.189941,22234.885010,2568.808014,178416.046875
207,1,0.140442,-0.143988,0.000000,-50576.929443,-93298.528809,26556.592529,-77261.038574,21562.619873,1699.043823,116293.289062
208,1,0.154081,-0.129289,0.000000,-5706.198079,-50592.883545,22616.928874,-49015.249023,25755.833008,1817.810252,99864.093750
209,1,0.166188,-0.113305,0.000000,-1367.766113,-98492.521240,23636.839355,-20622.532227,7847.309326,764.123482,117173.554688
210,1,0.176644,-0.096195,0.000000,-17576.055176,-38964.287323,25625.431091,7371.358887,8675.617931,3971.675720,117173.554688
211,1,0.185344,-0.078129,0.000000,-35790.539062,5872.656901,15627.903300,-11554.525716,9980.582520,-1144.202637,253057.562500
212,1,0.192202,-0.059286,0.000000,-26401.621429,-25622.055501,20399.862040,-67439.334310,7437.761882,700.390432,135566.734375
213,1,0.197150,-0.039855,0.000000,-14294.177419,-171456.213704,20294.508626,-112401.113932,629.996577,-15378.971436,325061.343750
214,1,0.200138,-0.020027,0.000000,32316.294250,-328674.597656,-10095.280914,-99686.275391,-98.116635,-11642.953644,345017.781250
215,1,-0.031489,-0.013043,0.021019,258580.759055,-588643.862216,14677.719815,-60285.307839,-12933.609819,9950.796757,859498.000000
216,1,-0.031489,-0.013043,0.042037,260865.742010,-605070.995028,-8974.528054,-99995.136002,-17114.951716,483.081676,979662.125000
217,1,-0.031489,-0.013043,0.063056,255172.502974,-600574.412642,-15818.639160,-110165.641291,18888.073714,-9274.175959,979662.125000
218,1,-0.031489,-0.013043,0.084075,288024.578613,-562684.571940,9052.119141,-87660.153666,41645.640889,5197.269348,812233.875000
219,1,-0.051988,-0.013043,0.105093,839072.979167,-53635.444499,184291.484375,46030.002604,100014.821615,42144.977214,1006196.625000
220,1,-0.072488,-0.013043,0.105093,764419.739583,-19472.234375,79437.266927,2174.051392,42499.572103,9468.899679,739872.937500
221,1,-0.092988,-0.013043,0.105093,721629.625000,-17571.939819,10411.923767,-22138.574951,17620.012115,1383.403900,692570.687500
222,1,-0.113487,-0.013043,0.105093,694191.645833,-13017.854004,16925.685710,-15365.773376,-813.138021,-7759.795756,653509.312500
223,1,-0.133987,-0.013043,0.105093,695300.964286,-18694.607561,30148.229562,-17306.823312,-37205.625977,-14975.444702,738283.062500
224,1,-0.154487,-0.013043,0.084075,369237.067383,-314925.861417,23413.710405,119537.930530,-23633.264782,-36495.603954,640062.875000
225,1,-0.154487,-0.013043,0.063056,388638.949219,-297175.752848,39269.324436,108135.637050,-6988.674347,-10946.689718,710881.687500
226,1,-0.154487,-0.013043,0.042037,394383.396918,-291425.955688,38766.134928,106871.996514,22402.382477,3379.770716,713146.500000
227,1,-0.154487,-0.013043,0.021019,382048.174262,-318867.522346,15298.063477,140102.782281,32483.657823,23911.113993,861062.875000
228,1,-0.133987,-0.013043,0.000000,709486.773438,-13265.861664,69023.126770,-111.919922,49349.467529,-3143.146545,761184.250000
229,1,-0.113487,-0.013043,0.000000,690036.500000,-6385.955643,12686.031128,-4660.829781,11090.721466,4857.900650,659731.750000
230,1,-0.092988,-0.013043,0.000000,691367.500000,-11133.155273,2703.709656,-5315.180779,2004.108744,2321.967789,726796.187500
231,1,-0.072488,-0.013043,0.000000,712526.929688,-26354.522461,23026.962891,-4817.461210,-17306.234314,6478.125610,600909.125000
232,1,-0.051988,-0.013043,0.000000,798722.232143,-59219.605190,103159.574149,4732.550781,-97526.559152,-13326.071289,719156.500000
233,1,-0.118461,-0.100016,0.084075,-41651.131323,-278870.386914,28493.638501,352979.360938,-5224.229328,23489.005731,713089.625000
234,1,-0.118461,-0.100016,0.063056,-70084.394021,-287543.067827,41938.285123,355754.238636,4399.357894,-2252.861829,268024.812500
235,1,-0.118461,-0.100016,0.042037,-67757.092862,-292277.708807,40366.659535,362426.283736,5616.994707,12055.615678,347628.406250
236,1,-0.118461,-0.100016,0.021019,-67464.780540,-307230.221591,25668.336936,356348.222301,-521.248552,-2057.623036,553836.750000
237,1,-0.129870,-0.084676,0.000000,-168839.776367,-627770.464844,-91541.271729,371868.457031,19378.327515,-77166.491333,662310.812500
238,1,-0.139305,-0.068048,0.000000,-234023.593750,-762652.164062,-73736.881836,379946.042969,12652.149222,-26040.931641,942354.750000
239,1,-0.146620,-0.050386,0.000000,-181555.082031,-758129.164062,-63936.380859,335143.382812,-19578.742310,19577.043213,988000.687500
240,1,-0.151707,-0.031957,0.000000,-75648.737630,-612205.270833,-40957.602559,294600.096354,-24173.014852,58688.237305,950018.437500
241,1,-0.151707,-0.031957,0.105093,-70611.228190,-586831.119792,-75085.714762,269270.083333,26362.323730,-77574.964518,972244.937500
242,1,-0.146620,-0.050386,0.105093,-165087.691406,-805045.718750,-75915.385742,309642.660156,31764.885254,-38022.743652,972244.937500
243,1,-0.139305,-0.068048,0.105093,-215646.220703,-843633.601562,-73816.871094,368066.656250,20500.877991,12295.185303,655638.250000
244,1,-0.129870,-0.084676,0.105093,-216169.390625,-802063.328125,-80626.618652,419705.835938,-21251.622864,67535.560547,671289.687500
245,1,-0.103966,-0.085520,0.105093,199970.833008,-50215.425537,138346.084473,91265.871094,-10392.572144,-89667.485229,1040207.250000
246,1,-0.089470,-0.071025,0.105093,151294.443359,-188487.812988,95295.531250,745.637741,-15836.277954,-46448.431396,306926.593750
247,1,-0.074975,-0.056529,0.105093,59387.040039,-319106.603516,37210.176392,-90105.736282,-14407.239429,-15449.376221,359559.062500
248,1,-0.060480,-0.042034,0.105093,-16512.606445,-386573.685547,-20683.191406,-191335.199219,-7073.019943,17290.491852,467779.687500
249,1,-0.045984,-0.027538,0.105093,-227155.121652,-571013.321429,-156878.043971,-411584.866071,-26515.017857,28475.821463,620450.000000
250,1,-0.045984,-0.027538,0.000000,-107531.634766,-476472.550293,-69770.630615,-315854.747559,55571.699841,9195.274933,705173.750000
251,1,-0.060480,-0.042034,0.000000,-43944.367615,-424269.943359,-77524.343262,-260665.361328,48540.330185,-1241.096893,556165.312500
252,1,-0.074975,-0.056529,0.000000,97979.208008,-323469.072266,-22161.204224,-150403.287720,15245.748291,11725.835815,441365.562500
253,1,-0.089470,-0.071025,0.000000,165212.188477,-230298.620117,59958.449707,-36311.874268,-14708.996765,19560.535278,517004.093750
254,1,-0.103966,-0.085520,0.000000,235691.303013,32188.934919,211850.603655,245836.317522,-23133.726842,56860.232701,1015267.750000
255,1,-0.013043,-0.154487,0.084075,-52657.210962,-990269.042383,-69930.454901,-206748.684375,47756.115063,36270.040015,852558.062500
256,1,-0.013043,-0.154487,0.063056,-40901.791767,-901072.438777,-102677.705242,-208685.954627,11706.186899,21052.136118,852558.062500
257,1,-0.013043,-0.154487,0.042037,-67452.656501,-1015375.832357,-90298.261285,-204577.986545,-7933.819380,-2887.234985,715908.687500
258,1,-0.013043,-0.154487,0.021019,-44850.326443,-879798.881510,-67259.207248,-236686.765191,-35657.376763,-27152.817634,787658.062500
259,1,-0.031957,-0.151707,0.000000,247274.052612,-6183.247559,67332.375977,-299507.761719,-100034.513672,17136.887161,396833.500000
260,1,-0.050386,-0.146620,0.000000,437408.789062,58652.284180,98492.675781,-212511.791992,7796.735352,5127.968948,641455.750000
261,1,-0.068048,-0.139305,0.000000,374983.559896,-193278.878255,102661.012858,-20495.269531,65898.776367,9363.202108,703672.500000
262,1,-0.084676,-0.129870,0.000000,-2634.595052,-863874.916667,-67346.727051,153256.913411,73903.305990,6925.949056,1180519.375000
263,1,-0.100016,-0.118461,0.021019,-284194.146484,-830653.798611,-156300.688911,28144.155599,8433.089301,4267.290114,1250499.875000
264,1,-0.100016,-0.118461,0.042037,-250357.197998,-758858.259375,-148989.636523,32541.847070,-1324.196199,-359.262234,1257414.000000
265,1,-0.100016,-0.118461,0.063056,-264005.663525,-762534.559375,-145850.235095,23480.269775,-842.573354,1515.202087,930935.937500
266,1,-0.100016,-0.118461,0.084075,-324219.507975,-805679.067708,-152945.685113,-11010.790907,-7189.971205,-5921.429986,1291330.000000
267,1,-0.084676,-0.129870,0.105093,199017.846680,-561604.940430,17796.025879,136149.054688,-52627.733887,-1408.956055,705800.875000
268,1,-0.068048,-0.139305,0.105093,380661.986979,-173411.304932,79794.944173,-50975.727214,-51196.149577,-29435.779541,744653.625000
269,1,-0.050386,-0.146620,0.105093,408375.048828,50118.964844,132436.753296,-204080.757812,44161.977539,-27599.882935,230814.140625
270,1,-0.031957,-0.151707,0.105093,120893.419922,-224590.358032,107836.174805,-292169.700195,96675.625000,-17971.072632,375787.062500
271,1,-0.013043,-0.031489,0.084075,153030.504661,-832232.549716,-19989.758600,105980.224756,22198.521751,-34043.142312,812233.875000
272,1,-0.013043,-0.031489,0.063056,137795.346990,-849352.794034,-27786.082176,117143.750807,17304.833091,-14325.104218,1146450.750000
273,1,-0.013043,-0.031489,0.042037,154251.879476,-858570.100911,-22037.583364,106371.909454,995.304489,16103.734639,754783.312500
274,1,-0.013043,-0.031489,0.021019,205090.650553,-913418.408203,-26925.375244,84762.438609,-4240.902079,49039.168508,1605293.375000
275,1,-0.013043,-0.051988,0.000000,12379.879883,-1670593.687500,-97707.393311,-3434.057037,954.608997,67300.189697,1617163.375000
276,1,-0.013043,-0.072488,0.000000,8913.868347,-1637573.906250,-20941.700500,1723.654032,-3734.342712,17764.838644,1617163.375000
277,1,-0.013043,-0.092988,0.000000,7999.795776,-1628510.781250,-2679.318787,3010.618553,-2728.599236,5900.351166,1607235.250000
278,1,-0.013043,-0.113487,0.000000,6638.814807,-1621783.287500,807.638867,9734.850746,-2706.622699,-5851.726465,1679661.750000
279,1,-0.013043,-0.133987,0.000000,-6416.188572,-1629998.708333,-14491.726780,6879.217896,-6290.871257,-22491.619575,1608854.500000
280,1,-0.013043,-0.133987,0.105093,-33303.773132,-1640140.343750,-79047.221436,-41060.570312,6656.854343,36966.759338,1605822.000000
281,1,-0.013043,-0.113487,0.105093,11204.523682,-1613405.812500,-9113.900269,-4076.942810,3285.270454,-2727.654205,1584510.125000
282,1,-0.013043,-0.092988,0.105093,9750.052246,-1614307.171875,3235.824036,-6507.902359,3251.682671,-4612.421356,1599635.375000
283,1,-0.013043,-0.072488,0.105093,17764.140320,-1631532.984375,-3336.372772,-9795.562866,3581.754730,-15081.605150,1599635.375000
284,1,-0.013043,-0.051988,0.105093,25901.999512,-1656728.946429,-41457.301339,-25807.587193,10627.385254,-59685.979806,1642812.875000
285,1,-0.027538,-0.045984,0.105093,170172.750868,-171279.506510,72506.724209,-3595.098958,13819.082967,44244.466688,397405.062500
286,1,-0.042034,-0.060480,0.105093,140723.081299,-228265.389038,55242.088379,-12416.287109,15622.795792,36499.261108,365448.625000
287,1,-0.056529,-0.074975,0.105093,31599.544678,-380091.777344,4723.367432,-98885.192825,18192.166576,10846.574219,634817.750000
288,1,-0.071025,-0.089470,0.105093,-60746.527344,-504123.644531,-39145.192505,-179224.248047,18312.043945,-18934.488281,634817.750000
289,1,-0.085520,-0.103966,0.105093,-189782.282227,-599775.675781,-94330.187500,-221402.455566,10473.550903,-64445.884766,1152500.500000
290,1,-0.085520,-0.103966,0.000000,-218045.723524,-592517.763889,-33496.859375,-183640.050130,-14113.643826,67635.375868,1021909.812500
291,1,-0.071025,-0.089470,0.000000,-91151.030518,-456160.484375,-30127.888306,-301645.816406,-18990.001343,-6158.652588,988684.812500
292,1,-0.056529,-0.074975,0.000000,52344.745361,-357939.750000,-13153.245483,-210542.244141,-1172.176636,-9926.037567,520989.031250
293,1,-0.042034,-0.060480,0.000000,138011.104004,-275719.473145,9906.489746,-124723.688965,32810.497910,-7199.534653,586792.750000
294,1,-0.027538,-0.045984,0.000000,278040.106771,-162376.386719,104587.739258,8826.477214,28030.094727,11163.574829,705173.750000
295,1,0.013043,-0.031489,0.021019,198309.161377,-916836.297363,-41025.713879,-96984.299060,10580.576282,41449.402266,722986.312500
296,1,0.013043,-0.031489,0.042037,143924.443066,-858365.634375,-20460.643652,-132874.443945,8002.872974,19185.495306,862431.812500
297,1,0.013043,-0.031489,0.063056,130865.284557,-839608.396040,-14818.061135,-102491.889618,-552.342321,-16345.749162,1146450.750000
298,1,0.013043,-0.031489,0.084075,140576.136644,-908217.458158,-38386.155593,-26823.191977,-3264.360183,-49737.045974,808352.750000
299,1,0.013043,-0.051988,0.105093,17547.156223,-1704971.430556,-99007.364231,-1463.120795,6829.998332,-84620.287326,1633626.000000
300,1,0.013043,-0.072488,0.105093,5975.412384,-1642543.140625,-14177.837311,907.965637,-2096.826187,-18782.217041,1599635.375000
301,1,0.013043,-0.092988,0.105093,6308.297516,-1626741.468750,-2214.717484,-366.359592,-2092.970299,-7838.669952,1683020.125000
302,1,0.013043,-0.113487,0.105093,4543.842667,-1619013.250000,-2450.919891,-5449.778519,-1003.436111,-5167.188293,1579104.875000
303,1,0.013043,-0.133987,0.105093,-55305.729736,-1641127.625000,-65154.421875,-5033.000122,-7670.865841,45221.677490,1468556.875000
304,1,0.013043,-0.154487,0.084075,-46592.584174,-898479.823527,-64896.314675,260040.613715,-43893.899333,10965.910950,1147188.875000
305,1,0.013043,-0.154487,0.063056,-68856.828339,-1055464.037109,-125259.509644,228608.614258,-16872.844566,15642.243179,908882.812500
306,1,0.013043,-0.154487,0.042037,-62510.250837,-1058661.754464,-117533.369123,235946.948103,11740.699995,-17821.960118,933216.375000
307,1,0.013043,-0.154487,0.021019,-47656.564360,-1058293.968750,-101995.293803,268751.195312,39212.933512,-42779.812846,904808.875000
308,1,0.013043,-0.133987,0.000000,-95543.038153,-1683924.943182,-98430.054843,40650.905051,-15602.689009,-66320.441451,1535539.125000
309,1,0.013043,-0.113487,0.000000,4518.208252,-1631457.675000,-6050.638647,5548.088280,923.125482,-11446.459229,1643341.250000
310,1,0.013043,-0.092988,0.000000,9375.598587,-1627504.671875,-379.544884,6471.402170,-200.236992,-3137.362061,1607235.250000
311,1,0.013043,-0.072488,0.000000,15411.472656,-1629744.156250,-3139.393188,14009.431183,-1521.445766,5167.065786,1617163.375000
312,1,0.013043,-0.051988,0.000000,38653.386230,-1683398.921875,-40259.802368,27753.975952,5618.104248,61475.583618,1611033.250000
313,1,0.100016,-0.118461,0.084075,-356716.386719,-750243.770833,-144799.106174,-42898.035482,11739.259644,2029.470405,429262.187500
314,1,0.100016,-0.118461,0.063056,-353816.226562,-774541.171875,-191691.514757,-37686.982747,2220.835748,-3512.780818,674044.750000
315,1,0.100016,-0.118461,0.042037,-376665.219727,-765557.548828,-192522.235107,-9886.439453,6300.452005,196.941359,494209.812500
316,1,0.100016,-0.118461,0.021019,-290383.139915,-728178.422585,-137445.246715,-78553.190518,-5359.036841,18172.575806,477340.562500
317,1,0.084676,-0.129870,0.000000,14147.125000,-620400.812500,-70441.457520,-318825.195312,-66773.796875,-16403.527100,904165.312500
318,1,0.068048,-0.139305,0.000000,349047.186198,-219858.121419,95609.786458,-29594.885417,-53259.458333,9879.517008,619609.312500
319,1,0.050386,-0.146620,0.000000,421620.036133,17399.448883,114305.694641,205797.273438,-38006.227295,-1396.773849,266408.562500
320,1,0.031957,-0.151707,0.000000,317355.083333,16734.218750,67994.975586,306027.151042,45532.263997,-13908.214172,351067.562500
321,1,0.031957,-0.151707,0.105093,244138.244141,857.583984,123119.368998,301458.109375,-120056.267578,-59056.446777,755343.187500
322,1,0.050386,-0.146620,0.105093,577595.593750,55128.660645,131430.757324,197990.241211,-16419.259521,-40313.844971,788673.000000
323,1,0.068048,-0.139305,0.105093,440565.320312,-193816.350586,56907.809570,15507.948568,58323.805990,-2035.406535,788673.000000
324,1,0.084676,-0.129870,0.105093,239407.260742,-422643.355469,17214.524170,-177206.797363,40810.792908,48783.461632,795754.562500
325,1,0.085520,-0.103966,0.105093,-171620.269775,-491873.462158,-87784.130615,261468.036621,-47367.064453,-6463.780762,743806.750000
326,1,0.071025,-0.089470,0.105093,-44529.778809,-395400.990234,-66920.067383,222599.411133,-43266.091064,6784.560471,743806.750000
327,1,0.056529,-0.074975,0.105093,100080.754883,-285917.921875,-10524.152344,135929.058838,-19995.223114,24113.487076,329564.531250
328,1,0.042034,-0.060480,0.105093,181860.323242,-183015.303711,53778.840210,6065.521973,969.521973,37711.555313,645658.375000
329,1,0.027538,-0.045984,0.105093,243089.856306,-47923.669085,144973.239955,-157289.634487,-9186.765206,65362.066685,427819.375000
330,1,0.027538,-0.045984,0.000000,137908.147017,-250652.866300,75358.014915,77331.295455,29278.949973,-53855.182650,602667.250000
331,1,0.042034,-0.060480,0.000000,187214.629700,-174079.028320,74539.833740,-15178.959717,8006.643692,-46695.711891,301007.968750
332,1,0.056529,-0.074975,0.000000,64962.645264,-326087.943359,23150.122681,82659.024414,10226.263626,-18515.263306,316930.656250
333,1,0.071025,-0.089470,0.000000,-30044.305908,-461423.812500,-23136.613403,180731.601318,-629.161026,12493.209473,885621.562500
334,1,0.085520,-0.103966,0.000000,-185662.131348,-549972.335938,-77965.808838,225869.606445,7234.407898,97269.439453,885621.562500
335,1,-0.118461,0.100016,0.021019,-35683.602273,-296776.456499,21803.232178,-412032.387784,21438.698420,2227.713601,749442.187500
336,1,-0.118461,0.100016,0.042037,-112107.961115,-296905.184659,-4292.134122,-380869.610618,6663.660522,-7452.659409,1162078.250000
337,1,-0.118461,0.100016,0.063056,-44405.405762,-219756.717448,39729.557834,-433639.186632,9572.741238,-11598.097344,609138.562500
338,1,-0.118461,0.100016,0.084075,-61211.504541,-224987.574609,25578.187109,-420684.677344,-7849.383496,-927.115674,516562.750000
339,1,-0.129870,0.084676,0.105093,-221405.455729,-723482.093750,-80072.883464,-421448.153646,-12267.956462,-71310.958008,950271.687500
340,1,-0.139305,0.068048,0.105093,-187245.467773,-726450.656250,-46527.765462,-361466.166667,9620.435343,-20274.614461,619766.062500
341,1,-0.146620,0.050386,0.105093,-182961.017578,-811331.406250,-91433.675781,-331766.277344,27155.457764,31221.459961,943713.437500
342,1,-0.151707,0.031957,0.105093,-38773.884644,-537477.910156,-74214.717529,-276106.800781,24716.311035,62728.013184,580831.312500
343,1,-0.154487,0.013043,0.084075,443686.219460,-298691.785289,44387.016069,-81816.210272,-30111.242421,12822.598187,716943.562500
344,1,-0.154487,0.013043,0.063056,422524.487038,-303295.115234,47303.444980,-98828.382781,-9243.495085,-559.192122,784322.875000
345,1,-0.154487,0.013043,0.042037,414861.977539,-310440.918546,44219.940985,-104787.477761,16844.175992,-11594.489413,784322.875000
346,1,-0.154487,0.013043,0.021019,382368.793884,-361329.121338,12593.599292,-148057.171936,22903.899910,-36626.428967,581959.937500
347,1,-0.151707,0.031957,0.000000,-110012.385254,-634486.902344,-29373.482178,-316994.177734,-14476.719879,-66223.662842,578167.937500
348,1,-0.146620,0.050386,0.000000,-146214.345052,-725527.286458,-62177.429036,-333201.195312,-28059.844401,-30759.704346,1055446.375000
349,1,-0.139305,0.068048,0.000000,-242205.236328,-795962.210938,-84393.820312,-388341.167969,-5279.586426,17877.378418,954175.000000
350,1,-0.129870,0.084676,0.000000,-234098.679688,-743281.656250,-112150.014648,-409668.722656,15798.067139,92147.822266,598685.000000
351,1,-0.031489,0.013043,0.084075,336263.271159,-458585.201172,36182.800293,18529.714149,40591.435059,5358.527079,929295.812500
352,1,-0.031489,0.013043,0.063056,258202.417969,-564814.926847,3317.962458,57486.004347,7535.814853,-5722.932240,950530.312500
353,1,-0.031489,0.013043,0.042037,263042.552409,-603122.507812,-17696.737305,55102.627092,-17871.803263,-10379.360168,950530.312500
354,1,-0.031489,0.013043,0.021019,244371.009810,-623810.151278,-20167.809837,40578.109819,-23295.193065,-3470.175038,566065.562500
355,1,-0.051988,0.013043,0.000000,731713.666667,-157761.735413,86994.503635,-66227.067817,-91666.068631,-168.023641,600909.125000
356,1,-0.072488,0.013043,0.000000,664319.906250,-17101.411804,15259.408325,-9450.347412,-4784.680685,-4669.487442,638533.625000
357,1,-0.092988,0.013043,0.000000,677869.664062,-10808.413480,-3103.102661,-5197.003845,4021.237436,-4780.105728,680166.000000
358,1,-0.113487,0.013043,0.000000,698711.562500,-10622.894016,6725.662079,-2135.023468,13688.384186,-881.501465,724120.875000
359,1,-0.133987,0.013043,0.000000,722764.575000,-23268.263379,77187.542432,-6587.585095,68040.444385,-489.988269,842557.250000
360,1,-0.133987,0.013043,0.105093,727615.097222,-28489.576172,60505.185655,-5983.946289,-44283.910536,-1906.813436,653509.312500
361,1,-0.113487,0.013043,0.105093,698410.666667,-5493.947103,13378.902812,-16694.109863,3440.405680,5537.894287,766440.562500
362,1,-0.092988,0.013043,0.105093,696181.312500,-29264.177002,-11429.249649,-21814.745605,4440.004810,-6326.707321,692570.687500
363,1,-0.072488,0.013043,0.105093,706847.625000,-84034.401693,27051.574788,-30524.333171,32843.134766,25990.965332,708366.187500
364,1,-0.051988,0.013043,0.105093,752176.562500,-212032.615560,45925.568034,-40698.060547,70989.816528,36718.768229,1006196.625000
365,1,-0.103966,0.085520,0.000000,189943.072917,-48255.876519,40722.573134,-95591.914931,5913.629232,-37061.123264,1025424.187500
366,1,-0.089470,0.071025,0.000000,238976.334961,-108976.458740,51484.589722,-84759.973877,9378.558105,-28449.304199,595933.187500
367,1,-0.074975,0.056529,0.000000,129814.026733,-261179.868164,9701.973755,-834.928711,13899.880035,-7969.029114,368785.562500
368,1,-0.060480,0.042034,0.000000,37119.068726,-385843.949219,-26967.292358,84642.623688,18081.646793,22014.688965,851166.000000
369,1,-0.045984,0.027538,0.000000,-28063.477539,-457974.453125,-42004.970703,140422.012238,-6597.051479,52682.602295,851166.000000
370,1,-0.045984,0.027538,0.105093,-61178.363281,-408093.304199,-34623.798828,238531.451660,-49213.050873,-7871.295166,639408.375000
371,1,-0.060480,0.042034,0.105093,-11305.581055,-365536.906250,-62298.982544,216250.651367,-44063.828217,5254.897522,671498.250000
372,1,-0.074975,0.056529,0.105093,121336.246033,-280888.105469,-18140.693848,114688.289001,-10229.115112,12772.824951,532442.000000
373,1,-0.089470,0.071025,0.105093,194333.175781,-212996.055176,43597.866211,-33509.595276,7675.129395,19211.956146,345399.437500
374,1,-0.103966,0.085520,0.105093,301749.184710,29822.654925,202350.887835,-297961.272042,4487.212193,99568.719029,709571.500000
375,1,0.118461,-0.100016,0.021019,-66217.140516,-241889.842760,27768.952637,-361238.004340,-2331.453206,-9421.858141,1033822.937500
376,1,0.118461,-0.100016,0.042037,-88872.718587,-243309.747396,27438.090549,-355257.996962,6277.127350,6305.276637,494209.812500
377,1,0.118461,-0.100016,0.063056,-92001.526042,-251804.062066,34896.375651,-357548.749566,4457.156616,1042.513619,1063411.250000
378,1,0.118461,-0.100016,0.084075,-76505.844824,-229497.487988,40786.565674,-359525.969531,-129.372266,1916.832251,429262.187500
379,1,0.129870,-0.084676,0.105093,-203341.621094,-679013.593750,-70735.616699,-366024.320312,-1793.964355,27814.240479,539656.687500
380,1,0.139305,-0.068048,0.105093,-168871.811035,-636287.132812,-41173.796997,-289301.144531,-12315.491333,-7824.548340,616734.812500
381,1,0.146620,-0.050386,0.105093,-130047.898438,-634574.878906,-55916.277298,-258544.169922,-23762.005127,-20006.432617,578610.125000
382,1,0.151707,-0.031957,0.105093,-59264.243490,-534192.036458,-71988.725342,-236885.895833,-17836.090169,-59860.224609,606357.812500
383,1,0.154487,-0.013043,0.084075,370300.093164,-240037.476013,32465.045347,-88231.370901,24198.352026,-21851.824127,671694.312500
384,1,0.154487,-0.013043,0.063056,324443.125397,-275472.324666,28908.979980,-91724.024424,9242.856547,-7166.324619,656450.937500
385,1,0.154487,-0.013043,0.042037,358454.490771,-257444.080005,37360.735669,-93894.621409,-8231.732092,13134.606818,608633.687500
386,1,0.154487,-0.013043,0.021019,349916.521094,-270805.461475,22304.165186,-92027.094812,-23480.051953,29928.951251,784988.187500
387,1,0.151707,-0.031957,0.000000,-73796.415039,-624254.515625,-47245.704834,-272645.566406,12339.068604,63590.729492,805475.062500
388,1,0.146620,-0.050386,0.000000,-136481.968099,-613213.296875,-39266.480469,-285061.309896,26181.767415,16474.734538,863853.062500
389,1,0.139305,-0.068048,0.000000,-202098.204427,-612716.541667,-55098.754069,-326505.515625,13796.877116,-23228.673665,967419.375000
390,1,0.129870,-0.084676,0.000000,-219723.765625,-657742.523438,-109198.104858,-384160.976562,-11670.765747,-78186.880859,1000539.500000
391,1,0.031489,-0.013043,0.084075,170231.689941,-705809.250000,-38741.473511,86248.692322,-33012.031921,-1412.645508,808352.750000
392,1,0.031489,-0.013043,0.063056,247015.472124,-572698.545455,-25552.583008,89669.458762,-7582.006927,2238.529841,960402.875000
393,1,0.031489,-0.013043,0.042037,248799.716064,-586639.154948,-18688.307292,83752.259176,22263.804962,3879.443115,992706.500000
394,1,0.031489,-0.013043,0.021019,278334.137320,-535353.847656,13689.503794,29228.552528,23834.494366,-3511.693027,1028403.625000
395,1,0.051988,-0.013043,0.000000,695051.729167,-157626.341905,76956.677138,-31167.237332,75851.256999,2983.790663,627157.250000
396,1,0.072488,-0.013043,0.000000,651657.078125,-11628.439560,10676.513062,14031.017700,5891.429565,2629.456894,683039.125000
397,1,0.092988,-0.013043,0.000000,630862.156250,-7695.900635,-691.443008,15742.295717,547.634583,3447.210976,684200.875000
398,1,0.113487,-0.013043,0.000000,610727.427083,-6587.208333,1169.334920,19892.842204,-12284.051921,7776.873901,601012.812500
399,1,0.133987,-0.013043,0.000000,644692.609375,-21924.860352,23976.672241,14798.955383,-45109.919678,9910.386108,663733.750000
400,1,0.133987,-0.013043,0.105093,636062.729167,-28582.758681,49937.034776,5956.051914,41179.400767,1802.535048,570144.187500
401,1,0.113487,-0.013043,0.105093,597821.000000,-12775.197647,-3834.198730,-2363.730679,-1947.411412,-4685.440651,639396.937500
402,1,0.092988,-0.013043,0.105093,596920.117188,-13952.354889,-6841.353699,-8074.096114,-3175.400299,-2607.009808,649357.437500
403,1,0.072488,-0.013043,0.105093,604365.078125,-35450.347790,3849.929871,-20898.147440,-12328.065430,1804.113668,660103.687500
404,1,0.051988,-0.013043,0.105093,641214.393750,-146308.530371,98575.647266,18627.609375,-62439.081592,6130.657022,1048057.875000
405,1,0.103966,-0.085520,0.000000,175027.141113,-2497.412811,137384.613037,-144576.097656,-7272.913391,88721.708379,382583.531250
406,1,0.089470,-0.071025,0.000000,206629.822754,-156731.226562,96132.778076,-47528.914307,-20741.441467,35308.731328,316930.656250
407,1,0.074975,-0.056529,0.000000,102179.234070,-283486.946289,25084.631714,36297.645508,-14487.862289,4897.769897,556815.375000
408,1,0.060480,-0.042034,0.000000,63305.013367,-325283.804688,1497.478027,139412.767578,3593.394043,-38789.611427,716728.000000
409,1,0.045984,-0.027538,0.000000,-153005.351562,-495721.246875,-64721.360156,373583.118750,21177.979590,-61157.979297,602667.250000
410,1,0.045984,-0.027538,0.105093,-82711.250279,-511156.750000,-70871.193080,112930.841518,4966.988281,36238.072824,645658.375000
411,1,0.060480,-0.042034,0.105093,-45379.338989,-416674.601562,-58815.588013,240601.836914,21335.093567,25412.641739,645658.375000
412,1,0.074975,-0.056529,0.105093,87284.718872,-300025.818359,-8747.009155,160863.835938,3505.323090,-4232.869888,354867.843750
413,1,0.089470,-0.071025,0.105093,178277.381348,-215639.291260,35127.993652,66392.858398,-20462.191162,-15512.242386,354867.843750
414,1,0.103966,-0.085520,0.105093,182259.679932,-131743.772491,81218.159668,-119424.198242,-43425.312866,-32972.903076,451550.187500
415,1,-0.013043,0.031489,0.021019,205179.233709,-935578.029652,-12859.238770,-140552.220215,-29832.111189,-40505.619252,851533.312500
416,1,-0.013043,0.031489,0.042037,160137.534801,-938195.114347,-37710.816317,-157095.180642,-11038.687095,-34685.451394,881571.937500
417,1,-0.013043,0.031489,0.063056,139619.301314,-989455.062500,-42670.290161,-152058.416154,-2231.011020,7590.408035,597764.500000
418,1,-0.013043,0.031489,0.084075,219337.331982,-990898.712207,-29946.613525,-175400.738379,474.168774,43288.851245,949221.375000
419,1,-0.013043,0.051988,0.105093,6132.269355,-1933147.041667,-120721.453044,9624.886312,-13776.540853,91517.635959,1800787.625000
420,1,-0.013043,0.072488,0.105093,3261.990092,-1830953.500000,-15099.150391,13022.958333,5315.395101,8583.865967,1800787.625000
421,1,-0.013043,0.092988,0.105093,3119.740601,-1856959.843750,1609.481159,8191.201904,4012.492508,-261.734680,1907997.625000
422,1,-0.013043,0.113487,0.105093,-834.485962,-1884530.875000,-13751.325680,3493.525276,-5444.171249,-8648.479797,1851805.625000
423,1,-0.013043,0.133987,0.105093,-64825.286458,-1939139.979167,-34568.994385,-22331.960938,-14202.698629,-58284.347656,1922694.875000
424,1,-0.013043,0.154487,0.084075,-80421.124532,-1122156.694010,-82956.300456,183107.451172,35504.396072,-73818.093842,811260.437500
425,1,-0.013043,0.154487,0.063056,-83663.423651,-1014475.327060,-112999.836115,182120.493253,11060.280789,-22345.361972,919165.750000
426,1,-0.013043,0.154487,0.042037,-82716.746183,-1050963.023082,-109733.962891,203334.887340,-349.270075,48037.632968,1105110.875000
427,1,-0.013043,0.154487,0.021019,-79844.847949,-1195099.766406,-104806.851886,186001.677155,-19044.931250,120543.210742,1214824.750000
428,1,-0.013043,0.133987,0.000000,-84498.274089,-1993891.652778,-83806.204400,5181.707642,25340.713433,89821.774089,1888388.000000
429,1,-0.013043,0.113487,0.000000,8228.220596,-1888485.750000,-1311.514771,-5256.447052,-1957.120392,24385.561035,1916413.500000
430,1,-0.013043,0.092988,0.000000,7944.857254,-1865588.015625,-3041.258728,4317.352905,-422.435379,11937.376617,1855349.000000
431,1,-0.013043,0.072488,0.000000,11564.598572,-1858730.921875,-9813.317108,10564.129715,1598.673523,-2412.845230,1845231.000000
432,1,-0.013043,0.051988,0.000000,24028.356110,-1926328.421875,-53070.310364,12296.407043,-8792.489685,-86904.901367,1857801.000000
433,1,-0.100016,0.118461,0.084075,-415099.887695,-752294.521484,-193201.658691,-84735.693359,-17714.294250,3355.739777,1075396.000000
434,1,-0.100016,0.118461,0.063056,-352176.022363,-663135.816797,-176763.729590,-124485.098633,1563.274808,-857.228650,1089927.125000
435,1,-0.100016,0.118461,0.042037,-399189.211304,-755081.990234,-221189.056641,-80881.486816,2777.511536,-12779.746386,1018034.500000
436,1,-0.100016,0.118461,0.021019,-379320.163194,-752895.763889,-156750.295030,-111776.176107,29481.645426,5223.155529,611717.000000
437,1,-0.084676,0.129870,0.000000,-97360.579590,-647020.976562,-19226.106018,-405853.406250,76203.635986,34527.601955,859888.125000
438,1,-0.068048,0.139305,0.000000,158215.276978,-276461.300781,35910.469727,-161264.916016,129569.414062,53932.446289,615388.375000
439,1,-0.050386,0.146620,0.000000,359002.462891,-78265.012939,73666.998535,91285.776367,33320.348633,22019.026520,769713.625000
440,1,-0.031957,0.151707,0.000000,363246.632812,-88683.817627,107071.107910,295719.700684,-121255.474609,-2998.578125,1391062.125000
441,1,-0.031957,0.151707,0.105093,186680.070190,-149422.498047,107418.508789,351891.195312,156108.039062,39963.846191,811260.437500
442,1,-0.050386,0.146620,0.105093,451022.871094,-114281.953125,77488.383789,52481.512207,-944.980469,-34315.786621,772699.562500
443,1,-0.068048,0.139305,0.105093,223144.302734,-313610.325521,30504.981486,-152949.859049,-94680.249349,-49827.973958,630603.750000
444,1,-0.084676,0.129870,0.105093,-499.198608,-634014.878906,-33311.650879,-316014.203125,-67087.384277,-63984.386230,720693.625000
445,1,-0.085520,0.103966,0.105093,-108465.530355,-480906.740017,-26735.453125,72139.296007,14109.008681,58644.860894,809046.750000
446,1,-0.071025,0.089470,0.105093,-12524.382751,-427117.519531,-62644.491455,169293.822693,39423.755615,-12569.545074,532442.000000
447,1,-0.056529,0.074975,0.105093,122120.896545,-295443.808594,-32685.306641,105699.868530,16095.915894,-10196.435791,525754.812500
448,1,-0.042034,0.060480,0.105093,244149.417969,-168086.460449,54404.922607,25093.050049,-29462.313721,-12118.238129,671498.250000
449,1,-0.027538,0.045984,0.105093,353516.421875,-93320.744466,200627.588542,-78467.509766,-19548.727214,-21954.933512,639408.375000
450,1,-0.027538,0.045984,0.000000,255481.512695,-8088.393677,129091.784668,-150669.404083,-17672.369228,86674.737061,243466.718750
451,1,-0.042034,0.060480,0.000000,181170.734131,-167478.215942,79248.732910,-40049.412262,-8256.249664,38444.968506,457266.406250
452,1,-0.056529,0.074975,0.000000,92496.378906,-293650.620117,23897.713867,53466.735657,-12061.381226,7465.809875,595933.187500
453,1,-0.071025,0.089470,0.000000,18630.123047,-342660.578125,-23163.684326,156201.755249,-1503.124023,-34645.297729,595933.187500
454,1,-0.085520,0.103966,0.000000,-208884.934152,-525786.486607,-119262.412388,372466.667411,13247.812779,-61116.252232,393152.125000
455,1,0.103966,0.085520,0.000000,294309.855050,101884.989955,216761.359375,294998.228795,409.552734,-76712.896484,1003739.500000
456,1,0.089470,0.071025,0.000000,235786.703125,-118962.606201,63721.239624,55519.018555,4293.718750,-25183.214600,404461.812500
457,1,0.074975,0.056529,0.000000,163421.642212,-205095.567871,-17109.969849,-53922.154785,-17346.020691,-10384.993317,400724.000000
458,1,0.060480,0.042034,0.000000,29933.476562,-290668.625000,-63412.163086,-147936.662109,-42929.339813,4508.121521,400724.000000
459,1,0.045984,0.027538,0.000000,-19580.996094,-326064.551270,-47832.901855,-185491.503906,-41921.139648,6077.498535,464802.531250
460,1,0.051988,0.013043,0.000000,653135.791667,-41200.830838,68336.732693,15447.396593,60743.057617,6411.451308,627157.250000
461,1,0.072488,0.013043,0.000000,638477.453125,-23682.522278,5972.785538,15180.597382,12612.722412,-3552.801529,643284.812500
462,1,0.092988,0.013043,0.000000,637498.953125,-12114.858276,1453.842880,12820.384399,1422.559692,-2519.111416,669337.875000
463,1,0.113487,0.013043,0.000000,635260.302083,-3837.094157,13387.655680,11990.404439,-3946.892985,-4559.544963,630136.875000
464,1,0.133987,0.013043,0.000000,665061.000000,-5050.476685,54667.458374,10784.902519,-31978.596924,3034.147043,628371.000000
465,1,0.151707,0.031957,0.000000,-65818.223145,-564031.816406,-52155.534668,278469.859375,15478.665283,-48175.505432,615951.750000
466,1,0.146620,0.050386,0.000000,-133381.622396,-651623.010417,-64419.344523,304599.549479,25705.985189,-19602.012044,974525.000000
467,1,0.139305,0.068048,0.000000,-186257.096354,-625063.369792,-51998.744954,343759.520833,4226.012146,23241.109212,596924.937500
468,1,0.129870,0.084676,0.000000,-225175.947917,-620039.692708,-108900.377930,386623.877604,-6122.928223,88013.643555,913840.750000
469,1,0.118461,0.100016,0.084075,-55694.836873,-191294.494575,27939.580783,445680.881076,22753.780114,-4035.782823,979322.625000
470,1,0.118461,0.100016,0.063056,-93284.027917,-202851.013281,13060.117480,387080.939844,3760.237289,-1632.256581,1108859.875000
471,1,0.118461,0.100016,0.042037,-81432.537313,-211414.131293,12621.725260,395294.464410,-4248.518092,-345.073958,1108859.875000
472,1,0.118461,0.100016,0.021019,-106475.495949,-242051.029053,7719.074041,368030.613636,-5560.258168,13587.454989,1040616.875000
473,1,0.154487,0.013043,0.021019,348583.578613,-261599.375155,25562.514182,105008.387615,-18020.141457,-14459.739177,640639.312500
474,1,0.154487,0.013043,0.042037,376355.873413,-251535.007312,41490.403125,89491.783522,-11210.140100,3825.390378,700829.000000
475,1,0.154487,0.013043,0.063056,377120.751438,-254550.380764,43238.029853,106537.644491,8256.857503,22584.155945,700829.000000
476,1,0.154487,0.013043,0.084075,386373.576438,-240181.174672,34353.629206,92871.526123,19048.473455,28633.026090,682690.125000
477,1,0.151707,0.031957,0.105093,-59683.528971,-544340.661458,-76546.344889,244687.192708,-23118.021281,64741.126953,767926.875000
478,1,0.146620,0.050386,0.105093,-116788.559082,-649824.968750,-62689.542236,252419.005859,-23525.078918,34005.530151,855479.187500
479,1,0.139305,0.068048,0.105093,-184336.792969,-670060.007812,-70258.784424,295604.138672,-21502.506012,11575.360538,970305.750000
480,1,0.129870,0.084676,0.105093,-202750.742188,-679220.723958,-74962.415365,369550.700521,26.591268,-27409.353597,970305.750000
481,1,0.045984,0.027538,0.105093,-38684.325521,-525424.692708,-126018.473307,-81564.704671,-22084.210205,-88713.517253,674441.437500
482,1,0.060480,0.042034,0.105093,25558.421631,-343109.736328,-39479.918945,-79780.937439,4313.948608,-53532.342773,345132.718750
483,1,0.074975,0.056529,0.105093,125955.686829,-234988.996094,19623.314087,-14352.179443,8339.651672,6959.940186,335889.750000
484,1,0.089470,0.071025,0.105093,220819.891602,-107185.441895,55140.446289,53569.598328,7630.969940,31155.562378,335889.750000
485,1,0.103966,0.085520,0.105093,194383.884549,-80693.602431,23424.374132,111945.657118,-12935.744415,34591.079210,570288.875000
486,1,0.133987,0.013043,0.105093,669023.785714,-23015.882045,49561.239955,-2632.869803,46419.099958,7563.419434,684829.625000
487,1,0.113487,0.013043,0.105093,632308.679688,-17062.722488,5452.536743,-2267.840950,9462.236125,6171.216290,570144.187500
488,1,0.092988,0.013043,0.105093,623928.148438,-8788.853931,3203.452606,-2656.172363,334.376495,5207.923233,633816.250000
489,1,0.072488,0.013043,0.105093,627519.304688,-14526.485229,23601.832733,-3961.029795,-16172.630005,9330.933445,613957.000000
490,1,0.051988,0.013043,0.105093,612341.447917,-56962.648275,97192.232422,27109.892891,-62187.663411,3928.368230,613957.000000
491,1,0.031489,0.013043,0.084075,307973.654576,-580224.789516,24773.655814,-4226.456473,-39902.147156,-9665.255162,1048057.875000
492,1,0.031489,0.013043,0.063056,241144.246804,-552720.803977,-22057.303178,-20971.874112,-19287.889859,14667.710039,632432.750000
493,1,0.031489,0.013043,0.042037,227322.812109,-506484.522656,-202.407739,-35866.629370,8926.186237,7221.121808,753801.625000
494,1,0.031489,0.013043,0.021019,255085.134014,-569556.027043,6654.979830,10654.158598,18923.649527,1086.087299,1014842.937500
495,1,0.027538,0.045984,0.021019,213522.106771,-125450.095703,116286.652344,79971.320312,26551.502387,23656.423231,464802.531250
496,1,0.027538,0.045984,0.042037,245409.085345,16499.743583,190958.932478,161045.789342,13613.436087,19965.786691,843020.125000
497,1,0.027538,0.045984,0.063056,276229.126116,61216.398158,204144.767020,193168.706194,-16978.080183,-10531.934535,843020.125000
498,1,0.027538,0.045984,0.084075,287003.814453,31324.829508,190553.020264,223425.606852,-26384.919759,-51129.466309,596260.187500
499,1,0.042034,0.060480,0.021019,216029.710938,-66057.904210,62912.176200,69204.641044,7541.807495,11104.290876,274550.187500
500,1,0.042034,0.060480,0.042037,194667.410435,-47043.875837,91930.904506,82139.366978,10810.168243,12470.831264,238205.531250
501,1,0.042034,0.060480,0.063056,192945.941964,-43141.532645,103776.428153,82489.449847,-7542.045096,2482.246582,264184.281250
502,1,0.042034,0.060480,0.084075,218814.584263,-55424.258092,118816.870187,99260.889788,-28560.220738,-25244.974191,264184.281250
503,1,0.056529,0.074975,0.021019,94539.293898,-173631.509487,1949.763131,-46418.817313,3268.413696,3634.966287,302861.375000
504,1,0.056529,0.074975,0.042037,88324.441752,-151782.344866,9115.302019,-28642.607561,-1411.520408,1500.245459,322403.156250
505,1,0.056529,0.074975,0.063056,95487.429618,-145003.749163,25767.828195,-22728.060547,-6052.412654,1005.141227,258765.500000
506,1,0.056529,0.074975,0.084075,110598.724330,-157214.565011,31153.062360,-16331.161176,-18066.851249,-12769.744638,264184.281250
507,1,0.071025,0.089470,0.021019,-17221.567208,-271900.126116,-37155.868617,-159768.656215,7801.877223,1726.210972,673533.062500
508,1,0.071025,0.089470,0.042037,-11596.628003,-254892.079241,-35291.131696,-148594.904105,-3672.904184,-1842.245804,690068.062500
509,1,0.071025,0.089470,0.063056,-948.379490,-246165.128348,-28516.617467,-141259.090070,-5928.892334,7067.963625,679943.000000
510,1,0.071025,0.089470,0.084075,12829.191127,-254080.905134,-26549.234619,-131455.382717,-14678.915775,9854.252441,701704.250000
511,1,0.085520,0.103966,0.021019,-139464.728446,-443753.871652,-61435.642718,-236513.193569,-2905.252058,-5949.259033,673533.062500
512,1,0.085520,0.103966,0.042037,-128643.420619,-405072.950893,-73636.451172,-264512.658343,-1049.411368,-278.826538,952316.187500
513,1,0.085520,0.103966,0.063056,-119245.300432,-403182.343750,-78263.153739,-263462.301897,2615.062273,11219.181819,966724.312500
514,1,0.085520,0.103966,0.084075,-106040.353143,-418088.333147,-68602.874860,-250938.399833,6515.729806,39701.076207,701704.250000
515,1,0.031957,0.151707,0.084075,46835.318555,-250044.953052,70650.263562,-187904.668457,-21358.915552,-44069.321777,379605.562500
516,1,0.031957,0.151707,0.063056,409361.091797,-96140.782715,165612.465820,-244120.749023,13334.117119,-17469.624817,884049.687500
517,1,0.031957,0.151707,0.042037,458069.072266,-59876.950928,167148.964844,-263957.808105,28377.241447,17578.065918,724619.312500
518,1,0.031957,0.151707,0.021019,286529.513672,-119804.230377,141978.964681,-236721.658354,68607.781291,13911.560038,516361.968750
519,1,0.050386,0.146620,0.084075,368599.784180,-171071.485555,102720.437012,-30047.707845,15434.924967,-42042.396810,710492.625000
520,1,0.050386,0.146620,0.063056,216950.524685,-157494.116428,88139.646593,15086.709473,10308.633440,-15116.482693,884049.687500
521,1,0.050386,0.146620,0.042037,214922.886447,-116539.475098,79341.592177,29812.135641,-13538.300449,834.289212,379548.000000
522,1,0.050386,0.146620,0.021019,320115.175130,-78589.255290,107709.204183,-12790.963856,-2295.630249,30795.711609,389062.375000
523,1,0.068048,0.139305,0.084075,122958.172607,-283282.113922,42447.148804,177324.666748,45292.376221,-44167.406677,710492.625000
524,1,0.068048,0.139305,0.063056,135966.610799,-220949.881266,28651.689117,151264.687826,15451.829183,-18146.422201,551832.562500
525,1,0.068048,0.139305,0.042037,106173.860456,-243736.346470,11255.318917,181318.034598,-15166.789655,12066.962088,565146.812500
526,1,0.068048,0.139305,0.021019,124668.016603,-286460.278646,24508.510335,179666.667155,-57178.075846,42728.475098,604127.312500
527,1,0.084676,0.129870,0.084075,-148208.476128,-542305.315972,-56736.955850,323698.284722,39371.371894,-43760.830566,683818.500000
528,1,0.084676,0.129870,0.063056,-159152.653271,-453778.975000,-85850.425391,337254.353125,12441.627368,-15050.611865,1019019.750000
529,1,0.084676,0.129870,0.042037,-174409.888102,-496746.270833,-100576.095785,356578.329427,-17129.297668,6028.791372,1019019.750000
530,1,0.084676,0.129870,0.021019,-169048.265734,-548699.168403,-85166.832926,351351.738715,-42051.444716,50887.786133,683782.187500
531,1,0.013043,0.133987,0.021019,-33560.419085,-1921962.535714,-123841.941406,-9680.903251,18891.119280,103612.749721,1834737.500000
532,1,0.013043,0.133987,0.042037,-49130.792201,-1873632.508929,-184308.963728,-15257.231515,13512.271907,39033.477260,1834737.500000
533,1,0.013043,0.133987,0.063056,-51974.355072,-1871227.523438,-163780.983154,-9569.731476,9068.694267,-46235.622986,1829624.000000
534,1,0.013043,0.133987,0.084075,-47684.916829,-1870545.302083,-113733.226400,-9781.809647,2252.033936,-82091.909180,1829624.000000
535,1,0.013043,0.113487,0.021019,3035.596098,-1909982.419643,-31301.047712,6339.012410,9603.276768,30307.316110,1909765.375000
536,1,0.013043,0.113487,0.042037,1435.952073,-1913163.142857,-60399.361049,8850.306941,8283.346151,13762.227644,1870612.125000
537,1,0.013043,0.113487,0.063056,8001.941336,-1907941.250000,-59891.670480,12422.016514,1350.219073,-17629.071760,1863734.750000
538,1,0.013043,0.113487,0.084075,-1285.366374,-1873276.333333,-37869.102783,8688.706228,1246.039225,-32847.843750,1825442.625000
539,1,0.013043,0.092988,0.021019,-241.637408,-1909345.187500,-17139.552543,4553.564000,5603.362603,4094.972464,1894978.375000
540,1,0.013043,0.092988,0.042037,-2513.983608,-1934997.410714,-35165.882185,3384.693752,2287.897874,548.276474,1894978.375000
541,1,0.013043,0.092988,0.063056,-2475.420506,-1927895.732143,-34370.188198,6630.041992,-1716.131146,-6689.214127,1882446.250000
542,1,0.013043,0.092988,0.084075,-500.838196,-1904744.135417,-20540.171814,10725.339559,-5637.620839,-9108.014231,1908537.375000
543,1,0.013043,0.072488,0.021019,-1564.016148,-1916494.794643,-56128.500445,3472.347560,4372.224025,-18566.512961,1891925.250000
544,1,0.013043,0.072488,0.042037,-809.410645,-1937427.964286,-71333.897182,-861.430777,-589.282693,-6436.765208,1888308.875000
545,1,0.013043,0.072488,0.063056,1729.077645,-1936344.991071,-75808.550781,5972.914590,-4169.817954,10568.494719,1879409.500000
546,1,0.013043,0.072488,0.084075,889.467786,-1932631.312500,-53194.840039,14137.678174,-14713.058008,23369.526904,1916375.500000
547,1,0.013043,0.051988,0.021019,-12633.151326,-1930955.625000,-161377.135742,19301.628042,-4676.495748,-61092.428385,1891925.250000
548,1,0.013043,0.051988,0.042037,-12331.901511,-1930891.062500,-181736.743583,7511.437193,-3631.216579,-22288.855608,1888308.875000
549,1,0.013043,0.051988,0.063056,-7367.684424,-1956464.950000,-192613.668359,14325.916113,-6327.706665,21780.843875,1850896.500000
550,1,0.013043,0.051988,0.084075,-24767.331836,-2005211.100000,-189109.501562,39267.580957,-6531.469580,70532.181055,1879409.500000
551,1,0.200138,-0.020027,0.084075,21436.273941,-335862.983398,-10927.222481,-93466.122559,-9893.086040,-1831.633194,458144.093750
552,1,0.197150,-0.039855,0.084075,-28004.638997,-182347.609049,14673.574504,-101752.679688,-4064.835315,12239.910095,210490.796875
553,1,0.192202,-0.059286,0.084075,-33273.097918,-80994.832589,31854.029375,-75109.084569,-1154.389980,10624.430932,244682.234375
554,1,0.185344,-0.078129,0.084075,-20987.258057,-10033.986165,42921.646200,-10437.500496,-3483.009664,16800.272308,186297.078125
555,1,0.176644,-0.096195,0.084075,9841.281553,-38843.915202,39022.352010,-6389.323952,1984.474823,13502.231369,160670.984375
556,1,0.166188,-0.113305,0.084075,24038.791748,-61061.725850,41523.795711,1663.406535,1359.876344,2179.438171,203070.578125
557,1,0.154081,-0.129289,0.084075,-26126.917630,-97983.668199,31544.505697,-70939.349118,-8205.198336,-3599.999830,270088.218750
558,1,0.140442,-0.143988,0.084075,-60690.368164,-134029.303162,31945.119939,-52242.009644,-4041.005107,-11642.287369,114001.210938
559,1,0.125407,-0.157256,0.084075,-72340.190516,-254224.847168,20876.850870,-127901.796631,-14198.117935,-11610.300343,444676.156250
560,1,0.109127,-0.168961,0.084075,-197129.402309,-399942.715402,-16143.776943,-317230.908482,-21077.372580,-14272.589464,577456.625000
561,1,0.091761,-0.178987,0.084075,-537558.056920,-757014.598214,-211619.734968,-633279.250000,23898.906764,29202.324358,1582902.125000
562,1,0.073484,-0.187234,0.084075,-458928.834839,-814617.983398,-313654.490479,-275492.313171,27515.422371,52855.443481,302786.406250
563,1,0.054476,-0.193620,0.084075,-133402.439128,-181282.828125,-73355.331543,73084.368612,-1213.906453,21301.613932,302786.406250
564,1,0.034927,-0.198082,0.084075,-157975.578683,-231976.545759,-97311.594029,113971.085379,-5390.300642,28856.407645,103113.421875
565,1,0.015031,-0.200575,0.084075,-139990.128742,-479919.552734,-141063.038696,107664.603638,-3729.610565,54608.600586,218160.281250
566,1,-0.005015,-0.201075,0.084075,-155375.244350,-541287.892857,-166070.536970,-31140.770647,11122.898433,55903.090227,490142.906250
567,1,-0.025010,-0.199577,0.084075,-129977.797526,-297031.563802,-106412.094050,-93168.475260,8394.470459,37635.854777,290292.750000
568,1,-0.044757,-0.196095,0.084075,-120960.309152,-171307.335379,-68770.328256,-91697.744420,7570.302113,22799.100446,140023.421875
569,1,-0.064060,-0.190664,0.084075,-143412.608817,-213524.376116,-89129.082650,-42279.345215,5360.504133,31377.964216,140023.421875
570,1,-0.082725,-0.183338,0.084075,-402863.098307,-935061.003472,-302504.521783,322793.139323,-22613.080946,43699.786187,201196.031250
571,1,-0.100569,-0.174190,0.084075,-655899.621094,-583664.572266,-199802.096680,698137.496094,-22158.631958,6257.969528,1019980.625000
572,1,-0.117413,-0.163311,0.084075,-204238.968750,-345809.729167,2357.129512,354602.884115,9580.510569,-5145.702278,833938.125000
573,1,-0.133090,-0.150809,0.084075,-70561.368734,-219894.177083,46834.512695,148959.944987,19394.142904,-5103.553818,235854.078125
574,1,-0.147444,-0.136808,0.084075,-58448.095001,-186028.835785,38592.320801,131650.747559,23798.423004,6422.389587,294581.468750
575,1,-0.160334,-0.121448,0.084075,-1998.257385,-131034.468587,46458.550196,53309.496501,20988.222046,3355.968974,294581.468750
576,1,-0.171629,-0.104880,0.084075,3929.915545,-96250.090820,44953.104980,17884.024344,10939.894828,-4186.973729,91839.593750
577,1,-0.181219,-0.087270,0.084075,-41324.168663,-59452.379517,46654.889282,31835.591469,1328.438059,27.018574,91839.593750
578,1,-0.189008,-0.068793,0.084075,-36513.790295,-72922.758477,48784.297826,59266.247538,78.004905,11590.551487,193041.828125
579,1,-0.194918,-0.049632,0.084075,-27005.659609,-152595.436381,30709.576497,88764.825684,-1417.527237,9462.742676,96560.320312
580,1,-0.198891,-0.029978,0.084075,2331.555735,-296085.945312,4544.432353,114999.156250,-2288.008616,4660.741469,247666.125000
581,1,-0.200888,-0.010026,0.084075,46043.407017,-427973.689732,-19001.807077,39274.119550,3741.215995,8265.152653,484704.093750
582,1,-0.200888,0.010026,0.084075,24658.211723,-424457.156250,-21224.700495,-53585.115468,5303.704020,2973.927785,452064.156250
583,1,-0.198891,0.029978,0.084075,3036.304825,-283628.627344,1606.043408,-112514.349219,3902.293903,-6596.735757,430342.812500
584,1,-0.194918,0.049632,0.084075,-29738.349894,-137413.689697,33689.353678,-104817.559082,2980.761597,-8695.679469,259310.984375
585,1,-0.189008,0.068793,0.084075,-49716.255489,-55570.966396,47152.954607,-48926.345075,3466.168091,-9446.930581,328900.718750
586,1,-0.181219,0.087270,0.084075,1058.894287,-61506.971130,52972.996460,-28177.170715,6843.533997,-4635.284195,109085.046875
587,1,-0.171629,0.104880,0.084075,5479.375977,-51532.144885,47223.939941,-7564.155945,6620.753113,-4197.146362,270627.062500
588,1,-0.160334,0.121448,0.084075,3148.234180,-81585.644077,39549.501953,-26172.180762,7838.333051,-7473.062988,100807.796875
589,1,-0.147444,0.136808,0.084075,-40446.892639,-83816.920003,43427.400757,-64665.280486,9002.305655,-11699.494130,113893.539062
590,1,-0.133090,0.150809,0.084075,-34385.106201,-122404.715983,63831.261841,-51257.809884,3135.906199,4999.895386,187814.328125
591,1,-0.117413,0.163311,0.084075,-99458.422472,-256973.601345,58178.835178,-215456.313802,11396.016062,2597.431681,689547.062500
592,1,-0.100569,0.174190,0.084075,-328254.690186,-380298.679199,51874.564209,-404612.609375,20220.519730,-2018.025757,587723.875000
593,1,-0.082725,0.183338,0.084075,-649195.864583,-644402.854167,-35754.709615,-391527.635417,-1251.344315,-38589.493062,950765.812500
594,1,-0.064060,0.190664,0.084075,-758017.582031,-559900.648438,-19451.817123,-234891.090088,-12182.525558,-57909.297110,1141825.875000
595,1,-0.044757,0.196095,0.084075,-743850.523438,-484737.911458,24206.225810,-103256.385742,-28997.930013,-54986.475220,714032.437500
596,1,-0.025010,0.199577,0.084075,-492219.213542,-489801.335938,93072.078125,45683.398112,-25919.569743,-41582.858724,714032.437500
597,1,-0.005015,0.201075,0.084075,-306898.007812,-473602.321875,160249.413184,47116.420801,-12758.438110,-32899.469250,604655.437500
598,1,0.015031,0.200575,0.084075,-351596.159180,-581700.111328,97872.847626,-55810.710236,6799.760504,-46923.959976,831781.875000
599,1,0.034927,0.198082,0.084075,-596437.837054,-516876.359375,45565.184431,9010.197545,30608.984748,-31701.777972,831781.875000
600,1,0.054476,0.193620,0.084075,-807382.781250,-468676.664062,10217.223877,198253.036621,30570.324768,-23290.031250,795513.937500
601,1,0.073484,0.187234,0.084075,-656255.846354,-550907.192708,-45142.714518,325892.509115,-10713.903931,-12867.558431,375190.250000
602,1,0.091761,0.178987,0.084075,-335885.083984,-357579.593750,-7450.267253,377972.989583,-17497.385915,-2991.927816,670785.000000
603,1,0.109127,0.168961,0.084075,-88055.709656,-262906.450195,30693.102783,208984.036621,-18779.271545,-1322.058502,469510.343750
604,1,0.125407,0.157256,0.084075,-51178.109511,-163551.627930,36652.984029,80775.661011,-9969.440854,-9184.752402,344669.625000
605,1,0.140442,0.143988,0.084075,-28177.701009,-52298.372803,41451.720988,25878.788066,-13827.413045,708.211278,58018.480469
606,1,0.154081,0.129289,0.084075,-8814.037425,-29616.087077,38955.307617,30938.875895,-7575.356181,1527.902573,137833.343750
607,1,0.166188,0.113305,0.084075,17948.500668,-60131.506531,38273.944244,24131.585144,514.577755,-4859.673523,178544.046875
608,1,0.176644,0.096195,0.084075,6752.727051,-36049.623128,35037.963460,-1637.596680,-566.149562,-1340.181552,130894.390625
609,1,0.185344,0.078129,0.084075,-40066.019043,19005.562378,46422.635406,-18320.030060,2042.902222,-15254.075638,195331.125000
610,1,0.192202,0.059286,0.084075,-60232.010577,-48277.793294,35614.754247,45715.107564,-5125.767080,-11678.988118,195331.125000
611,1,0.197150,0.039855,0.084075,-21866.841605,-182464.606724,15928.900739,116702.400112,1354.025809,-3356.325017,334377.406250
612,1,0.200138,0.020027,0.084075,28054.434553,-330483.747768,-5963.040283,96957.101004,1186.093724,-6443.775598,311107.343750
613,1,0.201138,0.000000,0.084075,76272.624674,-397004.187500,-11657.640269,-1451.523376,968.737223,-4137.734812,464881.218750
614,1,0.200138,-0.020027,0.063056,10185.846934,-336985.963542,-14767.127441,-80711.277995,-1242.530457,1644.273448,356607.312500
615,1,0.197150,-0.039855,0.063056,-27076.321526,-190409.943604,15053.710999,-108177.432129,-2473.589493,2267.227280,310725.156250
616,1,0.192202,-0.059286,0.063056,-49189.184001,-71010.986165,35070.892080,-56759.184451,3598.150342,6344.980367,244682.234375
617,1,0.185344,-0.078129,0.063056,-24018.982666,12183.558105,53979.043823,20222.461422,653.669209,5218.099968,142764.375000
618,1,0.176644,-0.096195,0.063056,-7276.969564,-57903.463013,51338.775960,-14103.364583,-2410.104588,75.754364,282566.937500
619,1,0.166188,-0.113305,0.063056,26084.984212,-70074.819458,60305.321793,-9665.645030,-3758.131147,-808.534719,139049.968750
620,1,0.154081,-0.129289,0.063056,-7096.153646,-86405.763742,58286.947021,-64750.887791,-10008.198351,226.011135,376394.968750
621,1,0.140442,-0.143988,0.063056,-29875.523451,-108690.648519,68420.891602,-66293.962708,-9667.833374,-5919.827204,282204.656250
622,1,0.125407,-0.157256,0.063056,-83905.147705,-240781.807129,30388.556152,-138188.898438,-8092.285225,4491.182701,207465.109375
623,1,0.109127,-0.168961,0.063056,-172775.987305,-470060.970486,-51260.696072,-332326.001736,2715.810642,464.316786,956108.125000
624,1,0.091761,-0.178987,0.063056,-519559.601562,-747293.177083,-279026.255371,-631564.414062,26393.631714,22541.827576,1705473.000000
625,1,0.073484,-0.187234,0.063056,-507636.220703,-791214.529297,-363892.307943,-277305.835124,6276.069784,10721.703664,1705473.000000
626,1,0.054476,-0.193620,0.063056,-82717.638672,-111701.043945,-48549.883148,55267.129883,-1961.033035,8208.501404,103113.421875
627,1,0.034927,-0.198082,0.063056,-160293.619792,-239222.214844,-106367.396708,98074.104167,-2359.833928,20530.096639,103113.421875
628,1,0.015031,-0.200575,0.063056,-149067.721680,-472424.023438,-160154.877930,93715.417480,-6973.425225,18477.469187,478363.625000
629,1,-0.005015,-0.201075,0.063056,-146316.650391,-474115.532552,-161754.706380,-45600.337402,-1880.655511,13914.260040,434966.250000
630,1,-0.025010,-0.199577,0.063056,-135315.110352,-269334.828125,-110828.524414,-73823.500000,-1163.066231,15683.556274,213171.921875
631,1,-0.044757,-0.196095,0.063056,-99007.355794,-145496.444010,-62917.145833,-80090.148112,1791.586385,5133.302511,184500.640625
632,1,-0.064060,-0.190664,0.063056,-143955.169922,-186612.813616,-83160.499860,-41423.814558,-503.920316,-4551.532593,196191.703125
633,1,-0.082725,-0.183338,0.063056,-474694.668620,-932326.671875,-382917.451172,368677.950521,-14712.183586,10842.294840,1555891.000000
634,1,-0.100569,-0.174190,0.063056,-658330.712891,-581134.736328,-251953.225105,711839.992188,-6870.374847,5719.470413,1039498.937500
635,1,-0.117413,-0.163311,0.063056,-204553.563151,-353361.653646,-17401.832525,373607.570312,-4168.304749,12383.453501,690735.750000
636,1,-0.133090,-0.150809,0.063056,-78922.898621,-257017.533482,40597.664132,148521.067801,3788.289359,3624.280712,448391.781250
637,1,-0.147444,-0.136808,0.063056,-63638.733930,-178164.906250,48785.153639,116035.100446,6014.712904,3269.557142,385066.656250
638,1,-0.160334,-0.121448,0.063056,-13863.856506,-85301.613770,62947.212746,24011.182739,4296.074554,-2731.564499,190170.187500
639,1,-0.171629,-0.104880,0.063056,-10599.801219,-91701.166504,65240.785685,30974.746094,1312.231483,876.000750,125848.765625
640,1,-0.181219,-0.087270,0.063056,-11707.585519,-75279.663225,65964.941554,30823.044922,848.943945,-3282.165822,312801.812500
641,1,-0.189008,-0.068793,0.063056,-30937.519147,-64166.502238,57830.127604,37700.110514,-1630.219475,1027.808228,289532.500000
642,1,-0.194918,-0.049632,0.063056,-33102.043330,-155213.362895,34633.618408,91489.477539,-596.879070,4845.254275,112035.335938
643,1,-0.198891,-0.029978,0.063056,-12328.858594,-282844.535938,4945.365918,105540.334375,2379.799622,5483.012439,397094.656250
644,1,-0.200888,-0.010026,0.063056,46746.674805,-422185.884375,-16538.134052,38761.877734,-428.456543,4110.102991,452488.750000
645,1,-0.200888,0.010026,0.063056,32945.232422,-404335.975446,-15080.700801,-76976.534964,-3045.082838,4919.388190,380956.218750
646,1,-0.198891,0.029978,0.063056,-11072.462402,-256104.982422,13985.448975,-112945.286133,1508.729942,-920.743851,380956.218750
647,1,-0.194918,0.049632,0.063056,-31529.151728,-148508.327454,36692.409587,-102232.286133,3260.758738,-2993.371599,366898.562500
648,1,-0.189008,0.068793,0.063056,-38690.094172,-50835.127421,59766.775777,-43074.456787,2681.350067,-7179.399656,300547.968750
649,1,-0.181219,0.087270,0.063056,-446.534098,-13891.467448,76568.336833,-8359.872884,-5736.438324,-11022.110168,134883.093750
650,1,-0.171629,0.104880,0.063056,-15472.312439,-69846.495959,56890.345703,-12904.841309,723.146606,-1741.487101,270627.062500
651,1,-0.160334,0.121448,0.063056,14133.587189,-60658.957153,68422.560547,1289.230408,7932.120483,4299.803305,108012.695312
652,1,-0.147444,0.136808,0.063056,-51689.941238,-106320.755737,50447.546478,-82300.334030,3782.970139,5601.555720,111749.507812
653,1,-0.133090,0.150809,0.063056,-86879.312469,-160104.579102,58211.417320,-68364.676956,7915.450653,79.773567,111749.507812
654,1,-0.117413,0.163311,0.063056,-75582.102413,-255709.957031,85413.885707,-218612.837751,8337.665196,682.909606,752973.812500
655,1,-0.100569,0.174190,0.063056,-301728.533447,-357609.375000,55777.864258,-377957.808594,4465.582069,-2837.823214,950765.812500
656,1,-0.082725,0.183338,0.063056,-570822.171875,-564491.114583,-38610.677083,-378333.497396,-10917.683729,-1322.224589,926904.812500
657,1,-0.064060,0.190664,0.063056,-627129.542969,-391043.849609,20375.251526,-221997.334961,-14769.804550,-6552.022930,312007.906250
658,1,-0.044757,0.196095,0.063056,-653960.054688,-393903.200521,84026.461670,-72289.229492,-12809.513590,4122.429184,697165.187500
659,1,-0.025010,0.199577,0.063056,-504908.093750,-381136.000000,156988.154297,37318.461182,-15174.325867,4083.617279,697165.187500
660,1,-0.005015,0.201075,0.063056,-295194.700893,-463684.696429,157869.980539,60362.650181,-3374.342159,-9031.174803,604655.437500
661,1,0.015031,0.200575,0.063056,-326510.768555,-494064.941406,125816.267677,-63603.208710,4934.458019,-5796.897797,523465.406250
662,1,0.034927,0.198082,0.063056,-603717.307292,-397317.880208,77103.660034,2985.718750,17214.780945,15452.656596,519391.343750
663,1,0.054476,0.193620,0.063056,-666984.170573,-427449.429688,4559.280884,147096.048177,-856.339600,5386.364217,709159.437500
664,1,0.073484,0.187234,0.063056,-625457.893750,-491284.012500,-45647.250073,321763.092187,-15851.823645,-18425.355640,779403.812500
665,1,0.091761,0.178987,0.063056,-329602.839193,-331887.770833,10367.664144,343991.791667,-8904.329315,-10064.542440,553485.625000
666,1,0.109127,0.168961,0.063056,-118032.766595,-220479.922656,49952.652441,172907.724219,-6034.874023,-7870.688599,454613.500000
667,1,0.125407,0.157256,0.063056,-23885.264056,-98671.607520,76628.799023,55752.577441,-4665.842969,5002.370999,288552.687500
668,1,0.140442,0.143988,0.063056,-16057.851843,-36986.339160,64560.155273,4676.232910,-6513.707568,-2990.976743,186456.796875
669,1,0.154081,0.129289,0.063056,-6958.280544,-65589.293806,55955.777448,55214.859166,-6952.500469,-789.737344,277168.718750
670,1,0.166188,0.113305,0.063056,37795.131510,-50470.501058,62270.480204,1760.738485,-2573.328430,-863.901627,130894.390625
671,1,0.176644,0.096195,0.063056,2885.444987,-54197.123535,50496.805786,7702.651204,-5002.278234,314.121078,130894.390625
672,1,0.185344,0.078129,0.063056,-38732.239746,6821.625732,54507.256348,-23250.981323,-472.608276,-1250.754997,84146.609375
673,1,0.192202,0.059286,0.063056,-61987.869466,-59324.856771,40538.183960,50041.810181,2643.597965,-4255.967244,159371.578125
674,1,0.197150,0.039855,0.063056,-27070.817078,-189676.699219,21969.741292,108597.369792,2711.433848,-8541.806661,311107.343750
675,1,0.200138,0.020027,0.063056,23700.384399,-341258.393229,-11499.178792,87476.645508,-1098.397615,-6516.264486,311107.343750
676,1,0.201138,0.000000,0.063056,46689.064111,-384778.896875,-19744.309668,-2773.685254,-4126.492047,-2778.266724,414470.781250
677,1,0.200138,-0.020027,0.042037,28246.241028,-333760.367188,-6498.194287,-77498.998828,-1080.983228,-4414.634561,356607.312500
678,1,0.197150,-0.039855,0.042037,-27072.062891,-163374.345312,27953.842871,-100469.373438,-615.367661,-4256.669507,181715.578125
679,1,0.192202,-0.059286,0.042037,-65418.108561,-77129.459961,38585.506228,-61271.488444,-1572.318049,-7705.866338,142764.375000
680,1,0.185344,-0.078129,0.042037,-42272.529419,-2310.588501,58248.093018,15349.585510,-577.634977,-8520.082985,100500.007812
681,1,0.176644,-0.096195,0.042037,-11708.611537,-76763.445783,45856.691895,-11469.826451,2602.723917,1627.001929,234903.750000
682,1,0.166188,-0.113305,0.042037,32878.450195,-70559.402954,61651.183268,-7669.871806,347.595060,6237.965472,157490.828125
683,1,0.154081,-0.129289,0.042037,-10493.906006,-86015.088937,68023.122872,-62074.966884,4736.770242,5827.874254,133264.421875
684,1,0.140442,-0.143988,0.042037,-34133.118530,-98725.167399,76540.733480,-63238.381755,775.375784,4030.061214,133264.421875
685,1,0.125407,-0.157256,0.042037,-76817.406982,-243279.406738,28806.280518,-123228.279785,7904.403982,11061.155090,163439.890625
686,1,0.109127,-0.168961,0.042037,-227630.914062,-407121.907552,-64160.332104,-330521.768229,7490.781942,6887.715027,537091.562500
687,1,0.091761,-0.178987,0.042037,-572615.402344,-763607.372396,-297787.596029,-634860.565104,2102.177378,6924.869405,850191.125000
688,1,0.073484,-0.187234,0.042037,-521352.602214,-825151.084635,-373716.262044,-292220.682231,-2980.774099,-11057.256755,118037.664062
689,1,0.054476,-0.193620,0.042037,-107374.827148,-184045.396484,-77831.794922,53962.883301,7672.888290,-7276.572876,118037.664062
690,1,0.034927,-0.198082,0.042037,-174108.412109,-278876.968750,-117773.366862,87939.475260,3529.000582,-13923.029785,117299.156250
691,1,0.015031,-0.200575,0.042037,-125478.827067,-399596.138021,-138483.321940,87572.295410,647.435729,-22457.027181,360272.156250
692,1,-0.005015,-0.201075,0.042037,-132158.880920,-482633.507812,-153201.745605,-31020.015839,1521.470423,-11735.404442,272983.937500
693,1,-0.025010,-0.199577,0.042037,-142982.528125,-350658.496875,-128815.872656,-80486.025781,-280.341025,-4357.254150,254392.562500
694,1,-0.044757,-0.196095,0.042037,-95019.650553,-152249.337565,-61982.165517,-82309.169922,-597.022873,-7601.859762,117608.500000
695,1,-0.064060,-0.190664,0.042037,-139632.251290,-168032.476842,-83632.748326,-30938.773158,-108.589696,565.377790,158970.968750
696,1,-0.082725,-0.183338,0.042037,-492926.165365,-984646.869792,-401212.505859,362816.368164,-5821.169281,-12922.340474,1611640.250000
697,1,-0.100569,-0.174190,0.042037,-651357.455078,-672369.714844,-261522.586914,726756.437500,-2757.701538,-1265.749359,1611640.250000
698,1,-0.117413,-0.163311,0.042037,-189374.307292,-358528.561198,-7933.616440,373541.122396,-8967.822632,9751.845469,719124.062500
699,1,-0.133090,-0.150809,0.042037,-76623.396528,-254817.838170,47031.183629,147247.128348,-5761.010598,7024.183618,448391.781250
700,1,-0.147444,-0.136808,0.042037,-67760.198870,-167214.662946,50877.854858,108112.321847,-4884.277339,6642.058563,370430.437500
701,1,-0.160334,-0.121448,0.042037,-22329.662903,-85155.686523,63236.815918,28124.216064,-5232.225185,3540.202770,183273.687500
702,1,-0.171629,-0.104880,0.042037,-8400.199656,-76523.088867,65926.869670,33314.511230,-2525.422501,-5189.547465,307962.812500
703,1,-0.181219,-0.087270,0.042037,-9553.110243,-71801.315011,66026.310817,28898.086496,-5161.525088,-6752.883920,254338.093750
704,1,-0.189008,-0.068793,0.042037,-33723.243627,-69224.731995,56091.647715,43064.499898,-6161.415016,-3853.686551,289532.500000
705,1,-0.194918,-0.049632,0.042037,-30923.385335,-153776.279846,29547.865072,90077.483643,-3132.322530,357.628442,105550.859375
706,1,-0.198891,-0.029978,0.042037,-6701.977926,-292242.692708,1729.386373,105867.265625,-492.388377,-167.755213,408774.156250
707,1,-0.200888,-0.010026,0.042037,50326.882812,-421595.901042,-12482.673767,49973.464762,483.857180,4747.759583,452488.750000
708,1,-0.200888,0.010026,0.042037,40381.551409,-394868.611607,-7954.170149,-80660.352853,1525.061101,5009.337463,467847.000000
709,1,-0.198891,0.029978,0.042037,-20023.803223,-256810.667969,20023.388794,-112084.200195,1092.559448,5846.398743,265757.468750
710,1,-0.194918,0.049632,0.042037,-36361.793254,-143922.558634,39389.800130,-99603.108236,-434.694468,1667.089465,354779.156250
711,1,-0.189008,0.068793,0.042037,-38336.673177,-34439.079264,67875.076090,-37996.025716,-4533.602371,-340.200734,300547.968750
712,1,-0.181219,0.087270,0.042037,-18206.596837,-12618.739955,73366.961914,-26570.519496,1245.482086,2548.923270,105010.679688
713,1,-0.171629,0.104880,0.042037,-18904.946289,-100431.103882,46263.236145,-44215.615829,130.090740,6648.515182,105010.679688
714,1,-0.160334,0.121448,0.042037,-17981.803174,-61205.933081,52174.686475,-27936.455347,-423.405615,615.580241,294902.343750
715,1,-0.147444,0.136808,0.042037,-56247.333740,-86179.364583,51306.582743,-65839.422485,-8914.118118,3345.503631,111749.507812
716,1,-0.133090,0.150809,0.042037,-62048.132547,-128236.807199,67457.238316,-72667.231306,-7081.983102,8584.958287,145806.140625
717,1,-0.117413,0.163311,0.042037,-88297.446101,-213669.473958,83490.272380,-189366.708171,-16645.157552,-2486.351613,507165.937500
718,1,-0.100569,0.174190,0.042037,-333425.640625,-368856.544922,45547.314209,-386178.890625,-9866.989288,220.194016,962151.750000
719,1,-0.082725,0.183338,0.042037,-580468.708333,-547866.554688,-31717.885091,-379135.312500,4957.647565,-2416.554515,962151.750000
720,1,-0.064060,0.190664,0.042037,-684162.408482,-457051.040179,-6446.607875,-243915.506138,1569.960098,1303.968209,886421.187500
721,1,-0.044757,0.196095,0.042037,-654200.085938,-403093.210938,68508.951497,-72564.093913,-2686.304955,-6986.177246,697165.187500
722,1,-0.025010,0.199577,0.042037,-511106.953125,-389175.457031,150674.877930,29475.063232,1710.105164,3975.860081,744518.000000
723,1,-0.005015,0.201075,0.042037,-297381.353795,-473674.493304,163127.368304,62199.446533,2752.032580,10164.062014,623253.125000
724,1,0.015031,0.200575,0.042037,-321239.525670,-484527.694196,136055.449044,-59850.308245,-7396.656878,14235.423985,485176.031250
725,1,0.034927,0.198082,0.042037,-600218.708333,-370949.231771,74413.240377,2685.639750,-5360.940776,8206.533396,485176.031250
726,1,0.054476,0.193620,0.042037,-670632.790625,-416139.267188,23057.605420,174833.381250,4951.693042,-1895.027368,709159.437500
727,1,0.073484,0.187234,0.042037,-592938.573661,-522105.270089,-46508.967006,276730.004604,4725.499882,-6098.085868,822423.187500
728,1,0.091761,0.178987,0.042037,-340387.389974,-346784.575521,6153.499252,346983.042969,7607.880330,-12638.963888,532554.812500
729,1,0.109127,0.168961,0.042037,-103840.106464,-198952.541406,61018.590039,169345.625781,3580.568921,1919.857642,417110.687500
730,1,0.125407,0.157256,0.042037,-9668.464038,-113228.576123,72439.168555,45255.239844,-2470.573438,-6211.802194,112866.812500
731,1,0.140442,0.143988,0.042037,-31104.983500,-36290.071004,74199.857259,12884.769613,2191.950905,5022.603933,221667.562500
732,1,0.154081,0.129289,0.042037,-5785.461770,-49933.770089,61378.298235,50052.028704,3841.916541,3532.232766,98363.562500
733,1,0.166188,0.113305,0.042037,28805.789225,-57483.379588,60380.621684,1936.453369,-1053.018285,4224.983739,208937.437500
734,1,0.176644,0.096195,0.042037,-14975.650716,-61431.077281,50891.602458,17709.415365,4014.646907,580.884649,84146.609375
735,1,0.185344,0.078129,0.042037,-28384.202637,8890.609497,54801.181900,-17809.265778,2943.436595,-3738.496712,84146.609375
736,1,0.192202,0.059286,0.042037,-64197.460379,-79664.261300,30763.674674,63263.209455,-1405.303135,573.359619,128012.953125
737,1,0.197150,0.039855,0.042037,-15338.142944,-195193.880859,18650.151306,117051.481027,1985.009184,111.991047,184736.625000
738,1,0.200138,0.020027,0.042037,10765.711263,-342228.343750,-10286.790771,80775.859375,-2835.969461,-1703.820559,405368.250000
739,1,0.201138,0.000000,0.042037,46503.402344,-384563.140625,-14187.812305,-5673.924243,-1461.811060,-3172.227844,414470.781250
740,1,0.200138,-0.020027,0.021019,31098.847005,-329067.975260,-893.183411,-89099.971354,-3210.031309,-6320.316071,309796.656250
741,1,0.197150,-0.039855,0.021019,-33974.475433,-201442.363525,18224.878845,-121887.472900,-443.437136,-9385.533686,325061.343750
742,1,0.192202,-0.059286,0.021019,-57706.020939,-93752.080200,27627.926813,-66868.145996,5956.712357,-11273.895596,143052.859375
743,1,0.185344,-0.078129,0.021019,-40650.481964,18271.692505,37281.077301,8226.774414,-4926.811569,-15607.673759,101468.078125
744,1,0.176644,-0.096195,0.021019,-12943.559099,-53406.322771,32561.569824,-286.719587,-6149.211990,-1132.841311,211014.562500
745,1,0.166188,-0.113305,0.021019,13698.927409,-74278.698059,48794.042765,-8147.665003,2680.219007,3047.020213,117173.554688
746,1,0.154081,-0.129289,0.021019,-7567.253069,-82595.149449,43135.184361,-56262.808210,16352.750994,621.866329,99864.093750
747,1,0.140442,-0.143988,0.021019,-33833.985677,-95207.390259,50024.792135,-62180.348958,21241.040483,-356.661499,284391.156250
748,1,0.125407,-0.157256,0.021019,-51131.611230,-189794.689844,31939.555273,-114885.996875,18006.071533,858.681409,412163.812500
749,1,0.109127,-0.168961,0.021019,-207131.369141,-354374.559570,-29783.667511,-335121.407227,17875.488289,9018.567635,524659.937500
750,1,0.091761,-0.178987,0.021019,-578908.299479,-652815.053385,-201405.808228,-645782.312500,-16734.101440,-17974.764913,1809193.750000
751,1,0.073484,-0.187234,0.021019,-522616.531808,-866609.758929,-364873.863560,-323756.370344,-39458.095642,-53798.302455,1809193.750000
752,1,0.054476,-0.193620,0.021019,-126451.784180,-229370.160156,-97050.225586,56021.443848,4503.302124,-33691.756592,170001.031250
753,1,0.034927,-0.198082,0.021019,-170305.712054,-263887.324777,-103059.673968,95629.540458,7736.362167,-44227.510463,222853.796875
754,1,0.015031,-0.200575,0.021019,-160959.710100,-450539.571429,-142089.783273,102575.887556,5135.510880,-50991.429548,425677.687500
755,1,-0.005015,-0.201075,0.021019,-109915.346191,-507893.659722,-139230.469510,-23427.576931,-7823.086085,-58391.463976,425677.687500
756,1,-0.025010,-0.199577,0.021019,-177634.541016,-367619.335938,-144305.839844,-88657.014648,2751.265106,-43326.265137,300316.656250
757,1,-0.044757,-0.196095,0.021019,-119132.222639,-165324.501395,-62043.672712,-100356.486607,-3842.336705,-27610.188372,288572.625000
758,1,-0.064060,-0.190664,0.021019,-165015.553101,-197728.743423,-76432.051613,-28863.718018,-14975.598938,-41273.876526,279590.218750
759,1,-0.082725,-0.183338,0.021019,-497730.499674,-1047007.187500,-400181.168620,368902.216960,4431.208115,-56514.286214,345791.593750
760,1,-0.100569,-0.174190,0.021019,-654461.498047,-723255.355469,-240129.870461,741182.960938,30324.696045,-31195.710701,1077633.125000
761,1,-0.117413,-0.163311,0.021019,-160868.924561,-363152.978516,32887.777172,335730.557617,-8197.074173,15220.236088,585715.312500
762,1,-0.133090,-0.150809,0.021019,-79327.761393,-224875.824219,58461.604004,130905.744466,-9069.727801,9207.793701,427440.718750
763,1,-0.147444,-0.136808,0.021019,-76008.011698,-129113.228719,41059.842122,93291.105632,-16575.575335,-7698.731405,367552.125000
764,1,-0.160334,-0.121448,0.021019,-33861.252148,-105564.363208,32968.903027,52169.061133,-9166.198944,-2653.335078,319407.437500
765,1,-0.171629,-0.104880,0.021019,4667.422558,-55672.737325,53141.068970,29535.723145,-4473.212784,-1495.766275,73051.156250
766,1,-0.181219,-0.087270,0.021019,-10461.128235,-63396.180405,50923.316662,37841.773117,-3978.291954,-1736.053127,214491.781250
767,1,-0.189008,-0.068793,0.021019,-33628.433757,-40973.505758,50338.163961,25574.556946,3757.450185,-9372.063176,214491.781250
768,1,-0.194918,-0.049632,0.021019,-38768.203282,-157640.258859,24381.853747,99841.578055,-6330.572471,-8687.576285,365943.187500
769,1,-0.198891,-0.029978,0.021019,-13934.082349,-288117.551563,9256.948633,102098.289844,-1634.424658,-4663.320599,402900.781250
770,1,-0.200888,-0.010026,0.021019,47073.874313,-428431.701172,-11493.398277,55047.092285,-3906.440022,3567.073740,475073.437500
771,1,-0.200888,0.010026,0.021019,40151.675354,-412929.865234,-8046.558022,-76174.574402,30.005272,8265.712456,552735.812500
772,1,-0.198891,0.029978,0.021019,-15237.881226,-261588.894531,9143.258789,-110848.191406,-2048.228378,16850.974854,265286.468750
773,1,-0.194918,0.049632,0.021019,-38812.074707,-145569.606724,37756.013628,-106523.915458,-1405.980270,15607.713708,354779.156250
774,1,-0.189008,0.068793,0.021019,-41632.378479,-13230.137126,60260.920980,-22969.925618,1866.117528,17501.112386,297110.625000
775,1,-0.181219,0.087270,0.021019,-30479.744354,-32721.703613,49995.091705,-28857.626831,2071.971649,8569.267303,335835.968750
776,1,-0.171629,0.104880,0.021019,-13523.261579,-55194.581177,37604.860631,-34158.158534,-7183.885777,8062.179339,290770.468750
777,1,-0.160334,0.121448,0.021019,-7656.243327,-84525.485819,40094.970337,-35052.510689,-15088.880575,14027.883138,193086.406250
778,1,-0.147444,0.136808,0.021019,-52624.369202,-123220.133209,40721.091003,-97704.615845,-9286.105392,9138.586319,139723.343750
779,1,-0.133090,0.150809,0.021019,-35749.108085,-115276.083531,62381.420201,-79241.233956,-11108.829851,-7538.022478,139723.343750
780,1,-0.117413,0.163311,0.021019,-104038.450358,-232099.777344,67863.486816,-199382.167074,-21503.798986,-5944.474264,512061.125000
781,1,-0.100569,0.174190,0.021019,-335504.596875,-431233.423438,6926.707910,-410383.840625,-27520.367345,-15492.029651,619579.875000
782,1,-0.082725,0.183338,0.021019,-670679.289062,-624243.111979,-59129.550293,-404645.031250,-21595.658691,29738.743327,761957.937500
783,1,-0.064060,0.190664,0.021019,-733394.638021,-605739.281250,-35332.214844,-232911.253961,6529.228338,44099.245497,869973.812500
784,1,-0.044757,0.196095,0.021019,-722646.390625,-514735.167411,20019.910086,-86259.874721,24507.880964,40634.215489,784593.875000
785,1,-0.025010,0.199577,0.021019,-496326.385937,-470068.862500,105380.735352,43293.955469,14348.146289,36189.575854,602364.375000
786,1,-0.005015,0.201075,0.021019,-293862.525670,-560557.316964,133527.988142,34304.729492,-7226.060259,46387.124076,623253.125000
787,1,0.015031,0.200575,0.021019,-360518.991071,-558642.587054,115129.296143,-56949.960868,-6472.100577,60028.928920,648871.812500
788,1,0.034927,0.198082,0.021019,-615909.330729,-430720.390625,77397.621908,15518.219076,-24118.512838,42824.355021,674693.375000
789,1,0.054476,0.193620,0.021019,-724428.276563,-457571.268750,26298.058984,174904.426660,-23800.968018,47617.281396,822423.187500
790,1,0.073484,0.187234,0.021019,-632518.564453,-614834.009766,-38008.046129,292072.702637,1936.920441,27339.129913,822423.187500
791,1,0.091761,0.178987,0.021019,-338918.682478,-433287.258929,12849.244496,393728.623884,15992.936244,1824.612549,827978.312500
792,1,0.109127,0.168961,0.021019,-112365.653041,-275788.864397,34379.362584,188662.190011,11304.778547,-6559.406660,282723.687500
793,1,0.125407,0.157256,0.021019,-39138.860927,-140558.010080,57266.262974,58878.409110,9037.330985,5929.553109,282723.687500
794,1,0.140442,0.143988,0.021019,-33470.240186,-44632.148047,53654.030176,10230.462207,2380.880981,-202.164478,221667.562500
795,1,0.154081,0.129289,0.021019,-20173.796753,-43725.464897,39145.116089,56591.683777,7877.281157,435.832178,307955.468750
796,1,0.166188,0.113305,0.021019,33075.706107,-69551.617083,54512.678519,14486.381487,5124.360648,4595.600139,208937.437500
797,1,0.176644,0.096195,0.021019,1184.556905,-51303.265299,37687.890706,3914.566447,-3308.649595,7970.661133,129360.789062
798,1,0.185344,0.078129,0.021019,-42399.637891,-581.382812,35218.925183,14256.928369,-6091.571037,17742.795874,128012.953125
799,1,0.192202,0.059286,0.021019,-50849.398158,-50893.458008,38513.716692,65351.350900,2773.368177,13161.671282,128012.953125
800,1,0.197150,0.039855,0.021019,-24381.996887,-200371.777588,15333.702774,126104.149902,6459.125284,11192.168962,373481.406250
801,1,0.200138,0.020027,0.021019,14477.529785,-340272.150000,-5579.576563,79134.704297,6144.971069,3400.483069,395855.281250
802,1,0.201138,0.000000,0.021019,44528.691064,-401456.465625,-16653.809033,-2075.212109,-1619.680273,-6054.235730,468225.437500
803,1,-0.051988,-0.013043,0.021019,789042.500000,-57371.440988,163798.466797,5820.639945,-72358.925502,8087.871355,651442.000000
804,1,-0.051988,-0.013043,0.042037,765663.303571,-40832.174430,166346.984375,12466.244121,-27143.367362,8676.913686,956689.875000
805,1,-0.051988,-0.013043,0.063056,777492.075893,-47441.127302,150341.218331,18269.624302,26375.628732,10668.826308,895948.375000
806,1,-0.051988,-0.013043,0.084075,765445.294643,-163216.672921,106284.619559,26032.752703,69674.448521,15637.517892,818904.562500
807,1,-0.072488,-0.013043,0.021019,778035.486607,146.322527,49455.446498,-4990.083199,-22760.878174,8204.801252,766848.250000
808,1,-0.072488,-0.013043,0.042037,798319.638393,4557.209525,71766.540318,-6306.247009,-15027.644810,8216.264579,727801.062500
809,1,-0.072488,-0.013043,0.063056,796986.102679,5657.575448,68341.607003,-7297.905762,2303.761236,3276.881949,755976.375000
810,1,-0.072488,-0.013043,0.084075,781319.308036,-32244.304735,50040.993583,-3323.278582,17615.867052,3240.381483,765102.312500
811,1,-0.092988,-0.013043,0.021019,756209.589286,450.191982,11223.458653,-5267.467550,2368.557844,5589.364850,770073.937500
812,1,-0.092988,-0.013043,0.042037,793388.223214,647.649961,24887.404018,-4773.793370,979.202515,4931.250230,770073.937500
813,1,-0.092988,-0.013043,0.063056,791907.428571,1150.140638,27493.356376,-3614.901969,4775.355469,1401.950742,767401.437500
814,1,-0.092988,-0.013043,0.084075,762552.267361,-933.124576,34632.595812,-6167.380432,3370.458374,58.585863,748602.000000
815,1,-0.113487,-0.013043,0.021019,745312.183036,2991.427150,21659.183960,-5486.892578,12979.411551,5394.068244,747861.625000
816,1,-0.113487,-0.013043,0.042037,781680.602679,1799.240583,33114.592006,-6272.276751,8141.593297,1083.120453,747861.625000
817,1,-0.113487,-0.013043,0.063056,786479.714286,1557.880179,29734.175867,-5499.714042,876.869332,-3424.994701,752448.375000
818,1,-0.113487,-0.013043,0.084075,754304.687500,-3819.740723,13090.927318,-6176.642017,1286.463013,-10031.524820,738283.062500
819,1,-0.133987,-0.013043,0.021019,739795.602679,4963.761727,81818.062500,-279.383094,33807.620954,7476.752654,761184.250000
820,1,-0.133987,-0.013043,0.042037,758124.955357,2546.815713,98434.648438,-6630.082761,12728.857875,-462.038884,747861.625000
821,1,-0.133987,-0.013043,0.063056,765024.705357,1037.834978,97000.696847,-5751.619246,-17256.870292,-3625.554042,736515.937500
822,1,-0.133987,-0.013043,0.084075,746266.022321,-776.199184,57110.076781,-10788.173959,-33399.575126,-12723.404593,738283.062500
823,1,-0.129870,-0.084676,0.084075,-198426.395020,-702320.578125,-107530.955414,364547.573242,-22098.248199,41852.986954,957397.250000
824,1,-0.129870,-0.084676,0.063056,-234669.545573,-721621.562500,-131633.693441,388169.945312,-3130.141144,5251.644348,601847.187500
825,1,-0.129870,-0.084676,0.042037,-242548.168750,-716926.240625,-116872.069434,412474.484375,-3555.005322,2063.700830,1104341.750000
826,1,-0.129870,-0.084676,0.021019,-224124.136719,-728284.851562,-105338.781576,371586.565104,21807.965068,-34508.642090,537547.125000
827,1,-0.139305,-0.068048,0.084075,-196123.288940,-707959.964844,-75799.334290,343081.986328,-1903.064911,22449.787262,655638.250000
828,1,-0.139305,-0.068048,0.063056,-192557.972900,-764684.062500,-117455.836670,358888.283854,-4264.029043,8543.784267,645830.375000
829,1,-0.139305,-0.068048,0.042037,-178198.495020,-799834.950000,-118692.489844,363889.628125,862.552979,-3370.609277,1104341.750000
830,1,-0.139305,-0.068048,0.021019,-207838.428345,-735705.037109,-94279.160522,353033.093750,-235.795519,-15649.631897,988000.687500
831,1,-0.146620,-0.050386,0.084075,-181734.629232,-781704.231771,-93646.173910,315369.575521,12505.946859,-14178.129954,935341.187500
832,1,-0.146620,-0.050386,0.063056,-172323.783854,-788738.906250,-125113.726074,307362.860677,1869.599513,-4197.442529,607265.250000
833,1,-0.146620,-0.050386,0.042037,-159221.859701,-770449.427083,-125628.628718,303741.253906,-1032.101382,5055.733799,613162.500000
834,1,-0.146620,-0.050386,0.021019,-161012.778863,-659859.378472,-71750.979448,288512.337240,-8847.833489,1937.595395,619603.750000
835,1,-0.151707,-0.031957,0.084075,-109296.298828,-666780.489583,-93360.271444,265611.531250,12733.472519,-48590.691406,935341.187500
836,1,-0.151707,-0.031957,0.063056,-109147.540365,-676256.419271,-125596.652344,260618.265625,4366.245280,-17646.762980,916393.750000
837,1,-0.151707,-0.031957,0.042037,-105223.519531,-672719.828125,-131666.077799,257759.618490,1437.348142,10017.447721,898190.437500
838,1,-0.151707,-0.031957,0.021019,-44453.789062,-610259.960938,-74894.515022,269283.717773,-1803.645010,35697.951086,861062.875000
839,1,-0.103966,-0.085520,0.021019,205125.535854,-28209.385219,171909.428153,194272.115513,7352.264631,48396.554339,416264.125000
840,1,-0.103966,-0.085520,0.042037,200905.500000,-32395.153181,175488.715681,176313.671875,12293.892491,18234.119417,416264.125000
841,1,-0.103966,-0.085520,0.063056,200901.408936,-47246.207310,165870.758929,165197.050223,10481.433097,-5173.297985,496968.187500
842,1,-0.103966,-0.085520,0.084075,209345.872593,-31776.344727,144825.123814,157641.495536,11768.628627,-21190.018590,492636.031250
843,1,-0.089470,-0.071025,0.021019,149667.150482,-150825.553571,68098.212411,9277.059152,16632.516499,20795.355800,518410.312500
844,1,-0.089470,-0.071025,0.042037,146221.299805,-130192.853795,90373.747559,20945.062221,4780.528793,8192.742188,353109.406250
845,1,-0.089470,-0.071025,0.063056,148650.947893,-124664.800781,93750.025181,21954.225307,4173.318970,-3516.378505,353109.406250
846,1,-0.089470,-0.071025,0.084075,150480.650879,-120555.773856,81870.882743,24445.725586,-2902.519322,-10831.235125,267386.468750
847,1,-0.074975,-0.056529,0.021019,29361.563747,-277783.087054,-8512.605783,-124358.582171,13102.952448,6824.298109,441365.562500
848,1,-0.074975,-0.056529,0.042037,24657.596824,-246018.165179,3680.839722,-105574.460240,-1685.848546,208.702419,441234.062500
849,1,-0.074975,-0.056529,0.063056,24191.548915,-231317.862723,13348.020316,-100562.593610,-4038.018206,-626.877969,430606.906250
850,1,-0.074975,-0.056529,0.084075,33861.684291,-234878.601004,19671.675031,-95116.137556,-8341.317322,-5409.053275,359559.062500
851,1,-0.060480,-0.042034,0.021019,-84913.239737,-397921.670759,-67173.699986,-262740.622210,14942.739816,4618.292956,426259.781250
852,1,-0.060480,-0.042034,0.042037,-81341.154742,-350759.088170,-52675.556309,-237603.748326,-6594.545201,-2192.663892,342275.437500
853,1,-0.060480,-0.042034,0.063056,-90893.301932,-333521.244420,-43156.066633,-227315.630580,-8206.979457,-192.408469,430606.906250
854,1,-0.060480,-0.042034,0.084075,-76974.210345,-344082.473214,-31232.912214,-218765.347098,-11094.095529,-5759.341548,358213.656250
855,1,-0.045984,-0.027538,0.021019,-177071.049479,-524928.950521,-106783.810547,-360158.415365,17592.389433,16382.885824,391646.750000
856,1,-0.045984,-0.027538,0.042037,-196860.878069,-511590.569196,-112066.086775,-337011.054688,4024.255545,-7279.480748,391646.750000
857,1,-0.045984,-0.027538,0.063056,-202238.409249,-506292.210938,-115739.446289,-340553.924107,-1213.999384,-10626.094513,369527.562500
858,1,-0.045984,-0.027538,0.084075,-200876.632568,-515018.232143,-125786.525984,-360024.799107,-19018.185340,-17310.940360,455107.906250
859,1,-0.031957,-0.151707,0.084075,286369.717570,9974.403646,165152.622721,-238450.771484,58162.270345,-43.117569,773928.687500
860,1,-0.031957,-0.151707,0.063056,233047.944336,51264.408040,167012.701823,-226141.451823,6076.614988,-1624.597936,565417.187500
861,1,-0.031957,-0.151707,0.042037,221440.415039,42478.380534,173134.295573,-238677.603190,-21083.292198,-12788.063761,715908.687500
862,1,-0.031957,-0.151707,0.021019,124462.018690,-16670.992499,96851.839408,-246801.911892,-45713.455933,2928.427355,396833.500000
863,1,-0.050386,-0.146620,0.084075,368099.906738,40649.592163,135678.499457,-193008.107422,10325.570892,-14358.035248,298914.500000
864,1,-0.050386,-0.146620,0.063056,429494.114868,25993.691569,183675.750651,-205915.641927,-9614.616915,-1799.512533,824641.375000
865,1,-0.050386,-0.146620,0.042037,483108.112500,40210.973767,203956.439844,-220335.047656,-47.465125,-3201.793701,205368.515625
866,1,-0.050386,-0.146620,0.021019,418360.887085,19276.232079,149103.740540,-206325.605591,12666.059998,23220.477955,641455.750000
867,1,-0.068048,-0.139305,0.084075,391944.389106,-170037.516819,113967.681803,-21770.604926,-28986.814317,6181.389275,705800.875000
868,1,-0.068048,-0.139305,0.063056,503945.054688,-90935.962886,192840.352865,-104413.592448,-11808.015106,-7700.292511,205230.750000
869,1,-0.068048,-0.139305,0.042037,485094.401562,-125152.151910,181256.600000,-129293.719794,-1882.764465,7039.113623,658151.812500
870,1,-0.068048,-0.139305,0.021019,467158.616862,-108181.606771,145575.528646,-85837.943278,33283.284312,5889.969650,641455.750000
871,1,-0.084676,-0.129870,0.084075,205046.974365,-521773.552734,26331.146077,152095.225260,-21799.971069,19458.728516,780281.312500
872,1,-0.084676,-0.129870,0.063056,212103.567546,-421824.208333,74360.629883,172280.081161,-5622.351766,9140.549133,632048.312500
873,1,-0.084676,-0.129870,0.042037,215279.116781,-423782.477865,58089.096354,190471.072861,299.350156,19411.734910,632048.312500
874,1,-0.084676,-0.129870,0.021019,164273.259499,-564162.109375,5613.230513,195973.932351,19763.234833,-7258.671756,623958.812500
875,1,-0.013043,-0.051988,0.084075,-7715.814418,-1694414.973214,-112767.284598,235.446878,8629.137708,-60123.899222,1607904.875000
876,1,-0.013043,-0.051988,0.063056,-19466.882159,-1684510.348214,-149308.650112,14591.793962,8306.844029,-33698.226772,1663635.625000
877,1,-0.013043,-0.051988,0.042037,-17151.501139,-1679180.645833,-151293.841634,16295.614044,4913.352126,15358.660360,1638808.125000
878,1,-0.013043,-0.051988,0.021019,2440.765555,-1679484.526786,-124280.031390,-7611.603184,-429.745658,54010.078683,1669335.250000
879,1,-0.013043,-0.072488,0.084075,2096.802665,-1682735.866071,-23874.339565,-3260.036560,5203.434204,-17735.253181,1675840.750000
880,1,-0.013043,-0.072488,0.063056,-1877.168387,-1705881.901786,-48964.327567,-532.931411,5461.624637,-14902.626096,1663635.625000
881,1,-0.013043,-0.072488,0.042037,-5231.813572,-1703322.580357,-55510.571115,-1359.026711,272.426229,6696.209072,1638808.125000
882,1,-0.013043,-0.072488,0.021019,-884.631949,-1677644.598214,-31345.894305,-2785.230230,-5512.474908,21373.915318,1651823.000000
883,1,-0.013043,-0.092988,0.084075,-278.175492,-1674305.678571,-4244.819519,-2380.415475,3372.169566,-5262.263166,1675840.750000
884,1,-0.013043,-0.092988,0.063056,-908.993162,-1712420.080357,-15092.334508,-511.265430,2079.083064,-5763.746959,1701481.000000
885,1,-0.013043,-0.092988,0.042037,-904.629323,-1713611.973214,-18616.609523,-199.045598,-1792.164315,-629.059971,1701066.750000
886,1,-0.013043,-0.092988,0.021019,253.007782,-1682546.260417,-9803.918060,2356.326732,-5025.182902,7620.014191,1679661.750000
887,1,-0.013043,-0.113487,0.084075,-4033.297028,-1672898.187500,-21730.303813,-3700.485634,3885.683848,3131.369934,1592745.375000
888,1,-0.013043,-0.113487,0.063056,-8348.403693,-1705957.263889,-35317.151611,-3599.378543,1516.841994,-308.763787,1660239.000000
889,1,-0.013043,-0.113487,0.042037,-8797.862946,-1715070.635417,-38542.166951,-5241.736602,-1650.747874,-6584.739741,1705201.250000
890,1,-0.013043,-0.113487,0.021019,-805.152476,-1685806.260417,-16570.267426,3833.465141,-5912.086271,-809.206960,1679661.750000
891,1,-0.013043,-0.133987,0.084075,-76260.438525,-1726958.650000,-147240.481250,-64228.675464,236.691608,40811.646924,1564185.125000
892,1,-0.013043,-0.133987,0.063056,-64259.159706,-1726138.984375,-139951.089478,-43411.124611,-2883.743927,11413.639526,1660239.000000
893,1,-0.013043,-0.133987,0.042037,-109779.234055,-1752517.312500,-175204.020508,-70567.236572,5050.305420,-16379.531723,1660239.000000
894,1,-0.013043,-0.133987,0.021019,-70500.182343,-1692946.987500,-116806.925781,-21382.812796,-7408.420111,-38607.637500,1679779.375000
895,1,-0.027538,-0.045984,0.021019,165536.162977,-241916.133898,92323.994032,-17438.465278,-16745.519187,-6687.304538,623150.750000
896,1,-0.027538,-0.045984,0.042037,183385.631696,-87316.551270,151578.316406,84175.337054,-23716.706578,-21516.725725,418952.906250
897,1,-0.027538,-0.045984,0.063056,202271.255092,-63664.505441,142354.230608,92996.511161,-2628.603115,-5581.126016,369527.562500
898,1,-0.027538,-0.045984,0.084075,209689.092041,-81370.433524,119636.379255,75541.720982,21527.393816,10986.390376,397405.062500
899,1,-0.042034,-0.060480,0.021019,151861.256069,-180408.320312,57834.853132,-21585.393973,-10754.539036,-8771.049914,374424.468750
900,1,-0.042034,-0.060480,0.042037,112606.342494,-164851.799177,71705.249948,-14092.360212,-20586.576835,-12232.333043,514581.000000
901,1,-0.042034,-0.060480,0.063056,95287.509312,-158899.296805,68990.150617,-24185.574498,-8517.549541,-704.394880,270909.625000
902,1,-0.042034,-0.060480,0.084075,105538.893311,-168632.786133,62114.033622,-26269.072824,10801.927595,20915.550476,365448.625000
903,1,-0.056529,-0.074975,0.021019,7843.506792,-298759.997768,-1353.847935,-154034.898717,-8008.540079,-5667.148878,568373.562500
904,1,-0.056529,-0.074975,0.042037,-9181.100616,-278002.743304,-2863.350516,-142180.098493,-4076.554417,663.106175,564263.750000
905,1,-0.056529,-0.074975,0.063056,-11146.534581,-267278.209821,6556.729388,-142372.843750,-1932.718774,500.300572,553166.937500
906,1,-0.056529,-0.074975,0.084075,-2491.957136,-280557.041295,1426.664010,-139276.145089,11540.003808,17227.568839,634817.750000
907,1,-0.071025,-0.089470,0.021019,-128067.203452,-414384.227679,-47373.175354,-286180.388951,-13385.981158,-3069.526014,568373.562500
908,1,-0.071025,-0.089470,0.042037,-119454.672015,-391784.121652,-47389.875000,-275260.470424,2326.455558,5079.352600,981342.562500
909,1,-0.071025,-0.089470,0.063056,-115745.581403,-378830.407366,-39393.536970,-269821.698661,6222.318730,-6071.750863,553166.937500
910,1,-0.071025,-0.089470,0.084075,-102654.241978,-394497.636161,-43434.423131,-254494.989955,11044.962878,1988.527623,267386.468750
911,1,-0.085520,-0.103966,0.021019,-247346.911412,-617049.825335,-83758.527762,-360368.870675,-260.550467,9233.903111,1257414.000000
912,1,-0.085520,-0.103966,0.042037,-243752.802734,-578692.301339,-102448.725586,-388187.577009,2605.747888,4563.221416,1257414.000000
913,1,-0.085520,-0.103966,0.063056,-238752.387939,-564882.356027,-100251.487863,-393497.309710,6985.392336,-6546.518430,960996.687500
914,1,-0.085520,-0.103966,0.084075,-226237.349505,-569219.643973,-88876.631766,-354449.483538,4640.429897,-32224.907785,960996.687500
915,1,0.013043,-0.051988,0.021019,2240.295375,-1709256.625000,-124648.558803,477.294556,12307.752965,54980.694231,1648937.375000
916,1,0.013043,-0.051988,0.042037,-21153.238196,-1697237.614583,-155345.008464,-20718.378652,11070.340851,20658.805216,1659308.500000
917,1,0.013043,-0.051988,0.063056,-22024.494443,-1688859.366071,-142796.806641,-9668.319510,2711.134940,-26226.087926,1669072.375000
918,1,0.013043,-0.051988,0.084075,463.086339,-1687675.419643,-104692.029628,2619.168684,1395.662872,-57657.244280,1633626.000000
919,1,0.013043,-0.072488,0.021019,642.742868,-1688373.491071,-18318.161436,2726.864776,2055.358721,8622.381836,1651823.000000
920,1,0.013043,-0.072488,0.042037,-3083.485866,-1717637.892857,-54362.382778,-3676.710778,2376.666812,4431.252851,1659308.500000
921,1,0.013043,-0.072488,0.063056,-1828.628379,-1712211.053571,-50489.971680,295.137299,444.423017,-15876.065290,1669072.375000
922,1,0.013043,-0.072488,0.084075,-154.340432,-1684276.401786,-30256.978760,3021.838481,-3622.083147,-23732.464774,1686309.000000
923,1,0.013043,-0.092988,0.021019,-1258.104797,-1686709.333333,-7298.318566,1646.716952,718.894552,-5929.232971,1614364.875000
924,1,0.013043,-0.092988,0.042037,-2243.594480,-1719464.946429,-17849.859469,-786.208732,1104.098937,-3757.896432,1718259.625000
925,1,0.013043,-0.092988,0.063056,-642.530946,-1721061.357143,-16164.551235,-319.024114,-1368.037150,-9353.165336,1718259.625000
926,1,0.013043,-0.092988,0.084075,1735.843948,-1680807.375000,-5183.287702,-587.402968,-4162.603253,-12987.294460,1683020.125000
927,1,0.013043,-0.113487,0.021019,-6169.484314,-1682695.800000,-34202.037988,1882.536838,1315.939403,-14820.260583,1643341.250000
928,1,0.013043,-0.113487,0.042037,-7042.395909,-1713944.339286,-30815.768938,3597.536894,304.197226,-6273.888755,1677373.000000
929,1,0.013043,-0.113487,0.063056,-6246.252830,-1720916.843750,-42289.084625,4615.451452,-2029.395626,440.987580,1727510.125000
930,1,0.013043,-0.113487,0.084075,-2185.679060,-1687431.000000,-17737.377058,-2098.842522,-3807.115941,-5724.914978,1656096.875000
931,1,0.013043,-0.133987,0.021019,-81296.874191,-1695400.531250,-127268.167435,51181.442581,7642.561781,-45863.813843,1578366.625000
932,1,0.013043,-0.133987,0.042037,-112773.411243,-1739390.225000,-187808.988672,80397.200781,-3149.466556,-12509.780615,1606615.250000
933,1,0.013043,-0.133987,0.063056,-72671.058925,-1711152.285714,-136047.046735,46755.356027,-4935.995501,21926.210603,1541851.875000
934,1,0.013043,-0.133987,0.084075,-99699.820215,-1735427.337500,-139092.723828,56481.902539,-9716.249231,36732.152168,1573345.000000
935,1,0.084676,-0.129870,0.084075,100037.307943,-544593.005208,19696.757840,-241454.101128,27491.290527,28301.912659,781124.250000
936,1,0.084676,-0.129870,0.063056,72677.383789,-499646.567708,9618.973389,-278856.799479,-2811.619827,-9080.675700,716336.937500
937,1,0.084676,-0.129870,0.042037,65874.884082,-475153.467969,12460.184888,-272530.723438,-5570.797070,10277.887512,1027581.437500
938,1,0.084676,-0.129870,0.021019,66543.231585,-521202.089286,-10849.694964,-280279.330357,-28873.694301,-5850.401646,559371.375000
939,1,0.068048,-0.139305,0.084075,433735.271205,-169162.471505,133416.350725,-5557.717355,32743.567653,16050.274170,403562.656250
940,1,0.068048,-0.139305,0.063056,421568.721354,-211768.946075,154764.504049,-11004.555339,2995.547475,-9118.884542,698957.562500
941,1,0.068048,-0.139305,0.042037,401996.063802,-210438.397054,155670.105306,-12666.871745,-10876.194194,9194.379344,677509.812500
942,1,0.068048,-0.139305,0.021019,334765.483817,-238234.667236,104193.032087,-60629.234375,-24406.471854,8993.844552,677509.812500
943,1,0.050386,-0.146620,0.084075,503432.311523,14572.642782,154381.951904,188642.405273,-6471.538289,-17099.058467,788673.000000
944,1,0.050386,-0.146620,0.063056,420396.433472,-51302.170616,172324.904541,189773.965088,5490.096207,-2053.053715,732615.062500
945,1,0.050386,-0.146620,0.042037,433927.159040,-44466.083313,177081.744800,205937.845424,3407.569275,301.449799,391062.375000
946,1,0.050386,-0.146620,0.021019,413055.689732,-27904.307914,140509.084856,212188.073800,2593.089495,3659.151358,715926.437500
947,1,0.031957,-0.151707,0.084075,260383.942243,-27400.232370,117732.252331,288059.736607,-62542.956194,-20524.426845,260229.218750
948,1,0.031957,-0.151707,0.063056,288115.461589,-91919.593262,156460.374064,298697.122396,-28798.661947,-11045.230738,908882.812500
949,1,0.031957,-0.151707,0.042037,289123.328451,-107433.035187,152617.109578,298579.850260,10639.436096,-9237.590647,694417.812500
950,1,0.031957,-0.151707,0.021019,151489.821733,-142591.999329,73527.875999,273330.138494,44894.503268,-10132.691301,565499.937500
951,1,0.085520,-0.103966,0.021019,-194242.044189,-532301.041295,-77769.806362,342175.475446,-1129.793507,-1372.106973,885621.562500
952,1,0.085520,-0.103966,0.042037,-206359.623605,-504595.549107,-86107.197126,354234.912946,5920.287598,-140.715214,380295.375000
953,1,0.085520,-0.103966,0.063056,-207419.848912,-519226.974330,-89717.179548,361248.806362,6056.635795,-14317.481271,878720.625000
954,1,0.085520,-0.103966,0.084075,-185607.545759,-506039.174665,-69566.720843,338934.061105,19636.859654,-41741.790030,401392.375000
955,1,0.071025,-0.089470,0.021019,-69782.425851,-353473.316964,-32811.051130,221587.052037,12371.250113,-8406.391122,481886.593750
956,1,0.071025,-0.089470,0.042037,-81039.258963,-341623.017857,-32249.559745,230409.404576,4042.543810,-2545.510241,288413.218750
957,1,0.071025,-0.089470,0.063056,-81762.355347,-350262.838170,-35135.547782,235179.195871,1063.044996,-13380.552054,477114.312500
958,1,0.071025,-0.089470,0.084075,-82531.089774,-367820.820312,-47698.578613,242063.136161,-7983.962956,-11906.407122,339191.343750
959,1,0.056529,-0.074975,0.021019,47194.731864,-237691.420759,17109.028669,92337.290039,9404.319772,-17343.138136,269937.437500
960,1,0.056529,-0.074975,0.042037,26927.294503,-234128.606027,18843.601144,101892.915955,-318.080768,-1521.778957,269937.437500
961,1,0.056529,-0.074975,0.063056,20800.379464,-238542.194196,12783.926270,106770.305494,-5850.549552,-1287.494475,292270.656250
962,1,0.056529,-0.074975,0.084075,30135.661429,-258206.739955,7829.795532,119524.715219,-16838.492623,8846.646301,309778.312500
963,1,0.042034,-0.060480,0.021019,187033.572545,-125065.440569,96953.302734,-31425.346758,16392.662301,-22993.989724,499232.156250
964,1,0.042034,-0.060480,0.042037,136424.326294,-126505.881278,84877.318987,-14290.904323,-545.494158,3266.976567,499232.156250
965,1,0.042034,-0.060480,0.063056,123970.875628,-125896.940918,79697.067740,-9478.717848,-14014.887207,4000.608994,294415.656250
966,1,0.042034,-0.060480,0.084075,157208.348284,-148480.838728,91949.234794,-17209.034241,-35843.252616,21348.375331,550908.500000
967,1,0.027538,-0.045984,0.021019,232814.242188,-147596.389090,119966.555525,-42938.535714,26276.572928,-10776.279393,722986.312500
968,1,0.027538,-0.045984,0.042037,219454.211984,-32906.277762,161383.514073,-102239.674107,5313.646031,-5891.266881,722986.312500
969,1,0.027538,-0.045984,0.063056,219147.012556,-12033.758440,176876.571708,-127558.055525,-26923.273403,15985.978498,372247.031250
970,1,0.027538,-0.045984,0.084075,235030.226875,-36113.401855,178208.544922,-181241.532593,-30257.262207,63726.545898,550908.500000
971,1,-0.129870,0.084676,0.021019,-201558.433811,-639414.517361,-86225.059787,-334611.041667,-756.809530,29602.149799,954175.000000
972,1,-0.129870,0.084676,0.042037,-261123.856771,-696798.278646,-138332.138346,-389736.175781,11567.276896,6172.490039,1034484.812500
973,1,-0.129870,0.084676,0.063056,-267435.192969,-765848.953125,-152286.791016,-439181.790625,-10075.116504,7364.835205,1034484.812500
974,1,-0.129870,0.084676,0.084075,-225190.348495,-695802.146484,-112478.123398,-386174.870117,-20857.106781,-58407.335297,950271.687500
975,1,-0.139305,0.068048,0.021019,-199204.722307,-750991.395089,-96857.276786,-374015.143973,-6501.001186,10884.232143,954175.000000
976,1,-0.139305,0.068048,0.042037,-221454.588216,-766799.059896,-128721.914317,-375911.786458,-7733.674067,1776.835798,1034484.812500
977,1,-0.139305,0.068048,0.063056,-250692.845052,-788503.205729,-145043.938080,-379744.261719,6938.061122,5334.660744,1020838.687500
978,1,-0.139305,0.068048,0.084075,-215226.061157,-718425.115234,-92657.175171,-360157.129883,-8359.421127,-28332.682816,950271.687500
979,1,-0.146620,0.050386,0.021019,-196829.842355,-743566.169643,-102692.788400,-336577.719866,-11168.114432,-14022.398494,1017637.437500
980,1,-0.146620,0.050386,0.042037,-179571.356608,-793837.276042,-135659.728068,-322154.149740,-1402.584824,-3240.910950,917285.937500
981,1,-0.146620,0.050386,0.063056,-185648.092773,-788692.291667,-135236.787435,-328215.286458,4387.117879,811.382334,1020838.687500
982,1,-0.146620,0.050386,0.084075,-183071.912946,-738595.756696,-90342.069650,-322041.128348,9967.590140,1814.005580,943713.437500
983,1,-0.151707,0.031957,0.021019,-132794.247660,-686181.718750,-121822.139079,-299040.337240,-8334.817749,-47782.990723,500324.937500
984,1,-0.151707,0.031957,0.042037,-103876.624939,-666183.924479,-124970.725260,-276612.524740,7969.023594,-19711.690877,917285.937500
985,1,-0.151707,0.031957,0.063056,-116787.011393,-665106.809896,-120859.142578,-276800.821615,7945.622823,5261.782941,750609.000000
986,1,-0.151707,0.031957,0.084075,-92385.261440,-623836.453125,-81522.007115,-278468.207589,4523.115792,39646.980399,943713.437500
987,1,-0.051988,0.013043,0.084075,773782.071429,-60094.841657,120585.766462,-16441.890939,51615.596488,-9951.658831,818904.562500
988,1,-0.051988,0.013043,0.063056,737863.562500,-37372.586844,148877.407924,-10020.173322,26639.390939,-2938.920495,708420.187500
989,1,-0.051988,0.013043,0.042037,722702.924107,-36803.226632,142909.098214,-18049.617364,-22954.015520,3389.105783,668451.500000
990,1,-0.051988,0.013043,0.021019,720257.955357,-64317.178611,121593.913225,-34372.125266,-55744.674735,12608.183132,668451.500000
991,1,-0.072488,0.013043,0.084075,767461.517857,-14322.770822,50348.438023,-13282.966187,5903.887852,7389.108028,763668.000000
992,1,-0.072488,0.013043,0.063056,777678.446429,4842.041068,68649.815011,-5822.967896,7031.375995,4239.593872,765656.937500
993,1,-0.072488,0.013043,0.042037,768944.522321,8477.965934,64615.424944,-5417.842372,-8984.318996,2685.618966,749689.500000
994,1,-0.072488,0.013043,0.021019,737064.928571,6733.704219,40931.534258,-6887.008793,-16589.508057,-3875.238970,766848.250000
995,1,-0.092988,0.013043,0.084075,758306.604167,-8648.533122,24592.063232,-8487.703471,-3138.200085,-825.421677,752004.312500
996,1,-0.092988,0.013043,0.063056,789178.267857,1397.127334,31585.483677,-4797.403085,4258.405813,3366.565397,765656.937500
997,1,-0.092988,0.013043,0.042037,784031.187500,1209.338855,23707.350427,-6219.912345,526.417773,445.979856,783374.625000
998,1,-0.092988,0.013043,0.021019,743734.821429,2118.227798,7867.378163,-7159.951242,-338.282423,-4017.647042,680166.000000
999,1,-0.113487,0.013043,0.084075,761430.687500,-94.415318,24356.898586,-6425.573050,-2718.981872,29.777972,766440.562500
1000,1,-0.113487,0.013043,0.063056,795589.375000,2.843103,34178.022426,-4902.085955,2782.899176,61.110803,784071.812500
1001,1,-0.113487,0.013043,0.042037,794044.995536,1179.620872,34380.814244,-4945.326826,7948.562387,-2421.400221,766095.187500
1002,1,-0.113487,0.013043,0.021019,758952.464286,3068.289752,21469.967876,-6429.898795,10195.194615,-1940.865792,724120.875000
1003,1,-0.133987,0.013043,0.084075,773798.531250,-6013.095407,67006.629464,-3380.057164,-32051.239565,-1551.788286,766440.562500
1004,1,-0.133987,0.013043,0.063056,797324.888393,-5143.706194,100851.262486,-3714.788777,-10553.647681,-5084.728681,759402.812500
1005,1,-0.133987,0.013043,0.042037,798046.352679,-4525.005365,104729.083705,-4435.052281,18073.967782,-7699.214931,766095.187500
1006,1,-0.133987,0.013043,0.021019,763562.496094,-6715.261719,82813.512207,-16908.456902,34921.743563,-1813.451935,845234.875000
1007,1,-0.103966,0.085520,0.084075,271970.799107,37270.929443,162892.070347,-261042.681920,10667.926880,26603.581264,189032.437500
1008,1,-0.103966,0.085520,0.063056,269447.518694,53311.706473,179129.402204,-230895.897321,2135.310128,8720.743757,577160.437500
1009,1,-0.103966,0.085520,0.042037,277589.958287,47540.163504,166282.580078,-227603.542969,726.683010,-14362.327009,1162078.250000
1010,1,-0.103966,0.085520,0.021019,268677.366490,44761.869001,131544.739572,-208548.258929,6617.305263,-27731.749721,417524.468750
1011,1,-0.089470,0.071025,0.084075,216573.659040,-73848.351283,74307.809971,-75291.327846,-7178.500296,20565.062273,309218.125000
1012,1,-0.089470,0.071025,0.063056,215298.746652,-56360.714007,93261.584263,-82371.664900,-6956.742833,8054.509992,251151.062500
1013,1,-0.089470,0.071025,0.042037,223914.603795,-54880.965960,94406.615339,-89863.921596,-3617.350962,-2292.869472,236243.593750
1014,1,-0.089470,0.071025,0.021019,227012.156808,-54673.692662,78702.551235,-88451.652065,9842.070731,-23177.154306,297425.906250
1015,1,-0.074975,0.056529,0.084075,91731.868652,-199309.229353,-6372.363831,61191.913225,-11302.631317,11369.163757,374786.781250
1016,1,-0.074975,0.056529,0.063056,90752.317208,-167686.566685,7771.785261,37889.041016,-3292.157187,2841.252215,245029.390625
1017,1,-0.074975,0.056529,0.042037,99568.176479,-160862.922433,16279.327706,30719.784877,-3423.691197,2277.437125,296294.437500
1018,1,-0.074975,0.056529,0.021019,107782.609584,-173716.244001,7875.288993,28898.780413,12053.572693,-12441.787371,233398.609375
1019,1,-0.060480,0.042034,0.084075,-21862.998396,-315669.283482,-63561.216204,185704.402344,-11629.609061,8467.708601,762600.812500
1020,1,-0.060480,0.042034,0.063056,-20937.849644,-270873.531250,-40873.343188,161531.216518,3791.402776,-1109.643803,665683.312500
1021,1,-0.060480,0.042034,0.042037,-10868.760917,-264198.912946,-31846.226632,155141.389230,-238.647012,3359.050860,665683.312500
1022,1,-0.060480,0.042034,0.021019,1447.664760,-297840.868304,-45581.707345,148370.933175,9661.714137,-3070.503662,218430.765625
1023,1,-0.045984,0.027538,0.084075,-120663.044271,-452129.717448,-84411.654622,315125.537109,-12015.148499,-7264.316935,482401.656250
1024,1,-0.045984,0.027538,0.063056,-147472.791417,-444232.559152,-96240.296875,282386.933036,2727.314120,10472.638096,950530.312500
1025,1,-0.045984,0.027538,0.042037,-138932.060547,-450553.493862,-93036.538783,263945.287109,7134.961264,-7725.246220,665683.312500
1026,1,-0.045984,0.027538,0.021019,-97668.277902,-442401.746652,-69842.902727,239327.989990,-4178.162223,-4830.748954,344505.437500
1027,1,0.129870,-0.084676,0.021019,-205934.564174,-596579.821429,-84030.601545,-337257.944196,-2689.334429,-27586.957031,549205.687500
1028,1,0.129870,-0.084676,0.042037,-236418.227214,-618030.138021,-108749.655355,-364788.194010,2246.619670,-1014.400187,933761.125000
1029,1,0.129870,-0.084676,0.063056,-231818.413411,-609679.197917,-100795.987630,-364428.572917,6237.383352,9335.098958,932055.937500
1030,1,0.129870,-0.084676,0.084075,-169819.417989,-540796.927083,-68363.182563,-324919.410590,6380.019511,22647.777534,579473.750000
1031,1,0.139305,-0.068048,0.021019,-195025.124695,-620271.031250,-65973.384720,-304577.567383,6378.125534,-6534.993301,933761.125000
1032,1,0.139305,-0.068048,0.042037,-222127.954671,-674663.583333,-114419.995443,-328788.979167,6966.618652,11801.419800,933761.125000
1033,1,0.139305,-0.068048,0.063056,-229620.446429,-673874.310268,-117011.065988,-307063.306920,7948.168642,2876.281424,955078.437500
1034,1,0.139305,-0.068048,0.084075,-210113.042411,-663699.337054,-81735.509696,-306688.463170,-4588.382895,737.896763,616734.812500
1035,1,0.146620,-0.050386,0.021019,-157201.105469,-671831.479167,-76586.610198,-290392.902344,2885.918172,8463.333354,550712.000000
1036,1,0.146620,-0.050386,0.042037,-168007.214453,-736556.768750,-127984.858984,-310174.156250,23393.321094,9185.168787,550712.000000
1037,1,0.146620,-0.050386,0.063056,-135671.430176,-637478.455078,-93767.379639,-257162.600586,4488.543743,5784.085205,955078.437500
1038,1,0.146620,-0.050386,0.084075,-139606.390625,-698566.859375,-72874.252930,-297406.314063,-9980.048883,-15052.239844,578610.125000
1039,1,0.151707,-0.031957,0.021019,-72907.367467,-560860.747768,-73294.452393,-247587.766741,6419.509731,47933.684501,717124.812500
1040,1,0.151707,-0.031957,0.042037,-95363.775553,-587877.583333,-99165.638184,-241379.013021,-5616.725563,25624.239665,677578.062500
1041,1,0.151707,-0.031957,0.063056,-55866.293274,-585538.848958,-86916.694499,-240055.287760,-14366.801310,-20127.459473,715186.562500
1042,1,0.151707,-0.031957,0.084075,-56022.861646,-578532.384375,-71380.023735,-232447.839062,-10902.162207,-48578.326514,507918.875000
1043,1,0.051988,-0.013043,0.084075,692906.879464,-136425.587542,108973.175921,-361.684265,-43100.369524,-3121.915667,1048057.875000
1044,1,0.051988,-0.013043,0.063056,706755.272321,-44087.634347,117385.383092,-5052.065970,-13381.377374,-714.551540,894793.937500
1045,1,0.051988,-0.013043,0.042037,708211.910714,-40177.864886,126155.640206,-7744.439941,20750.412903,-5586.628052,700452.625000
1046,1,0.051988,-0.013043,0.021019,706769.941406,-63844.201015,97430.682922,-15830.040192,50953.657379,-5119.557777,627157.250000
1047,1,0.072488,-0.013043,0.084075,667917.750000,-2892.079771,33594.032506,-2895.547171,-3656.272949,2479.008476,660103.687500
1048,1,0.072488,-0.013043,0.063056,708735.245536,7542.151751,52065.781041,8831.290397,-493.639223,-1179.173189,699698.812500
1049,1,0.072488,-0.013043,0.042037,716206.191964,8915.251587,49107.777309,7368.501830,10425.055838,-2473.211029,700452.625000
1050,1,0.072488,-0.013043,0.021019,706155.368750,8522.322644,39110.723535,8719.421667,13520.918506,1900.378070,669405.687500
1051,1,0.092988,-0.013043,0.084075,658884.151786,-378.528155,1830.413060,473.952881,2005.160903,-1387.421163,660103.687500
1052,1,0.092988,-0.013043,0.063056,701654.544643,395.839359,13432.813860,4896.362061,1563.902599,-1499.211418,707645.312500
1053,1,0.092988,-0.013043,0.042037,707011.656250,-906.321320,8538.406128,4313.722829,4398.622843,-443.693164,705755.687500
1054,1,0.092988,-0.013043,0.021019,672025.164062,1959.701569,5159.642441,6812.827110,3189.243652,3353.213448,673562.000000
1055,1,0.113487,-0.013043,0.084075,655759.602679,3294.378512,10631.593035,1882.562223,5177.793710,-3793.102142,639396.937500
1056,1,0.113487,-0.013043,0.063056,691179.986607,1360.031089,22265.668658,5057.016471,2567.338898,-202.668157,699333.875000
1057,1,0.113487,-0.013043,0.042037,700566.781250,684.374607,18694.521037,5802.553004,-3444.198700,783.227277,700531.687500
1058,1,0.113487,-0.013043,0.021019,677085.049107,-1878.241420,9214.635537,7244.186971,-7215.277030,2072.893297,667822.812500
1059,1,0.133987,-0.013043,0.084075,654751.785714,-4140.264029,57065.253052,3857.743938,25683.331159,-418.894499,639396.937500
1060,1,0.133987,-0.013043,0.063056,672949.598214,-3412.516244,81878.387486,6483.489144,9816.246106,2634.292131,656450.937500
1061,1,0.133987,-0.013043,0.042037,679554.741071,246.563799,87001.918457,5653.832014,-13351.638237,5016.764535,648947.000000
1062,1,0.133987,-0.013043,0.021019,666066.352679,-5720.709717,64295.617096,9075.611668,-29350.657571,8982.757981,614696.937500
1063,1,0.103966,-0.085520,0.084075,210458.926897,-21614.225882,140060.755301,-179687.892857,8976.087298,-34423.349278,469003.000000
1064,1,0.103966,-0.085520,0.063056,210359.752372,-18188.206473,165871.542969,-174486.780692,5660.513227,-7586.760141,1063411.250000
1065,1,0.103966,-0.085520,0.042037,211071.078404,-10642.147600,161771.032924,-178469.518973,3434.282715,8037.270176,503262.593750
1066,1,0.103966,-0.085520,0.021019,207428.794538,-12040.069754,149581.922712,-177246.600446,-4906.047038,26900.391670,382583.531250
1067,1,0.089470,-0.071025,0.084075,157293.291434,-140845.553345,60756.382254,-3512.676444,3418.441249,-16573.876290,239563.203125
1068,1,0.089470,-0.071025,0.063056,158292.384888,-114651.990513,87847.778390,-28610.446847,3132.704712,-6507.319676,238656.359375
1069,1,0.089470,-0.071025,0.042037,164427.862584,-103524.806362,95653.015067,-37308.076172,2457.226104,2444.041841,238656.359375
1070,1,0.089470,-0.071025,0.021019,176560.937814,-104807.256417,85128.918771,-41363.404018,-3783.988531,16465.873727,317463.281250
1071,1,0.074975,-0.056529,0.084075,32192.287615,-256988.204241,-1970.252668,117527.160749,8982.263428,-10568.782479,432032.062500
1072,1,0.074975,-0.056529,0.063056,33187.520787,-221276.118862,8139.010289,94060.007045,-532.050659,-2060.511632,292270.656250
1073,1,0.074975,-0.056529,0.042037,42498.266602,-215589.449777,18970.501918,85029.669922,-818.483203,452.674277,427585.093750
1074,1,0.074975,-0.056529,0.021019,57149.179897,-234535.023996,10138.646729,76587.282645,-7357.974895,2185.321587,277579.937500
1075,1,0.060480,-0.042034,0.084075,-88786.263881,-408682.061384,-56238.376814,239919.104911,12129.713937,-22755.359201,762092.312500
1076,1,0.060480,-0.042034,0.063056,-74904.872977,-312913.814732,-48592.889570,212437.290179,420.272025,-6745.808328,739722.625000
1077,1,0.060480,-0.042034,0.042037,-70279.005763,-315846.768973,-43478.090716,213234.267857,-5681.868033,7274.415918,427585.093750
1078,1,0.060480,-0.042034,0.021019,-45389.490819,-346881.383929,-30701.978202,211503.421317,445.376901,-8715.405552,716728.000000
1079,1,0.045984,-0.027538,0.084075,-85709.594735,-474314.290582,-45920.198947,122325.612603,-10770.622396,19743.213379,960402.875000
1080,1,0.045984,-0.027538,0.063056,-181017.177734,-477401.901786,-101851.779785,302044.720982,-7987.229771,-31733.619489,984275.312500
1081,1,0.045984,-0.027538,0.042037,-175551.741420,-465548.940848,-114032.517456,302757.970982,-12536.157558,-5393.459403,992706.500000
1082,1,0.045984,-0.027538,0.021019,-139885.757812,-482423.402902,-95430.960100,334642.952009,-16949.275286,2690.736843,602667.250000
1083,1,-0.013043,0.051988,0.021019,-4197.531860,-1942115.625000,-147539.214722,-10322.711217,-17520.896220,-69236.462728,1852387.000000
1084,1,-0.013043,0.051988,0.042037,-16256.524488,-1931321.616071,-179520.976842,-4709.872395,-12627.869174,-26591.064723,1812798.125000
1085,1,-0.013043,0.051988,0.063056,-15060.543738,-1920837.987500,-175543.660547,-6662.711157,-13140.626438,8223.782651,1887738.000000
1086,1,-0.013043,0.051988,0.084075,-4083.127991,-1936260.375000,-141999.016992,-15795.542078,-18868.013525,52044.811426,1800787.625000
1087,1,-0.013043,0.072488,0.021019,-270.972212,-1920043.571429,-42393.055437,6184.886200,-2974.448530,-3524.612453,1924578.625000
1088,1,-0.013043,0.072488,0.042037,-1638.758371,-1943414.151786,-66658.049386,4215.401659,-5370.556257,1788.140241,1934582.750000
1089,1,-0.013043,0.072488,0.063056,-665.304470,-1932673.062500,-71633.417829,3649.499045,-3486.088466,13953.410993,1887844.375000
1090,1,-0.013043,0.072488,0.084075,-3144.387500,-1909000.837500,-44851.883496,1145.302014,2555.398877,27768.745947,1887844.375000
1091,1,-0.013043,0.092988,0.021019,-619.802955,-1919817.839286,-14812.159930,5787.143228,-3300.773019,18900.374616,1896593.375000
1092,1,-0.013043,0.092988,0.042037,-669.684841,-1947692.125000,-35396.613421,5516.289516,-926.757533,10976.270490,1934582.750000
1093,1,-0.013043,0.092988,0.063056,1349.809771,-1944099.133929,-35142.552595,6811.282959,485.575474,1259.216518,1938641.000000
1094,1,-0.013043,0.092988,0.084075,-4943.419242,-1914883.705357,-16141.887137,5941.665806,2804.481358,2103.273446,1936648.625000
1095,1,-0.013043,0.113487,0.021019,-12.934466,-1928372.821429,-40003.971331,739.705246,116.168562,38945.146554,1901724.125000
1096,1,-0.013043,0.113487,0.042037,1207.368752,-1940454.375000,-68138.473214,5115.909448,4007.958534,19178.411307,1870612.125000
1097,1,-0.013043,0.113487,0.063056,5492.016032,-1945850.979167,-63371.673014,5819.244507,3583.784203,-10574.944031,1938641.000000
1098,1,-0.013043,0.113487,0.084075,1382.261292,-1932647.562500,-26951.544617,-2653.120346,-2299.386520,-19507.604980,1922694.875000
1099,1,-0.013043,0.133987,0.021019,-42654.562012,-1956859.178571,-127518.273769,24432.013583,7211.788783,91661.869838,1888388.000000
1100,1,-0.013043,0.133987,0.042037,-33742.429478,-1922209.705357,-192412.914342,28959.521572,12324.301409,36725.876587,1901724.125000
1101,1,-0.013043,0.133987,0.063056,-40210.019409,-1932659.585938,-174997.256348,30826.073898,2200.896130,-44753.270218,1693964.875000
1102,1,-0.013043,0.133987,0.084075,-18478.035435,-1949305.517857,-104674.329102,14513.123343,6734.874939,-83419.606864,1943479.750000
1103,1,-0.084676,0.129870,0.084075,10825.545703,-486841.560937,-22572.916016,-325178.782813,-34767.024121,-52789.275684,720693.625000
1104,1,-0.084676,0.129870,0.063056,-79159.342244,-532769.078125,-96469.713318,-324384.907552,-10671.419515,-22613.155965,438779.531250
1105,1,-0.084676,0.129870,0.042037,-68812.888489,-574380.593750,-107173.952799,-332159.718750,10708.976318,-362.892944,701553.625000
1106,1,-0.084676,0.129870,0.021019,-42455.202846,-531383.392299,-36107.987235,-335311.363839,69672.731306,46074.583252,859888.125000
1107,1,-0.068048,0.139305,0.084075,295525.173828,-224580.822893,60568.744158,-113044.779227,-55663.454032,-45035.082241,566103.375000
1108,1,-0.068048,0.139305,0.063056,326041.146875,-232145.830469,64429.393262,-82287.010938,8962.718164,-42134.817773,803976.125000
1109,1,-0.068048,0.139305,0.042037,236405.956836,-212231.039844,35256.391992,-71607.718750,2677.218262,6161.036816,378924.625000
1110,1,-0.068048,0.139305,0.021019,154506.456726,-330578.922043,26679.373779,-184905.671265,58370.156250,40477.074890,277863.187500
1111,1,-0.050386,0.146620,0.084075,450177.383138,-121784.280355,111530.295654,81718.952474,-25650.313395,-16284.584707,707984.750000
1112,1,-0.050386,0.146620,0.063056,462489.325867,23161.786214,154016.926025,63072.423340,-12807.915894,5655.236328,803976.125000
1113,1,-0.050386,0.146620,0.042037,468438.413281,-7917.234180,150746.571289,106326.975781,28739.601099,-10362.376367,627486.187500
1114,1,-0.050386,0.146620,0.021019,309154.088623,-52935.362900,119954.419983,35153.865967,1819.798721,49017.985741,758128.812500
1115,1,-0.031957,0.151707,0.084075,52053.855469,-189645.357777,75489.694502,230104.285600,46006.542037,-33287.482511,707984.750000
1116,1,-0.031957,0.151707,0.063056,358893.101172,-53382.864453,151248.712012,271185.312744,26991.331494,28145.216992,1105110.875000
1117,1,-0.031957,0.151707,0.042037,344335.397929,50683.445312,179703.836426,253936.533518,-15650.618829,46375.678060,1214824.750000
1118,1,-0.031957,0.151707,0.021019,167074.016412,-153150.971408,112295.985677,265075.399719,-56834.034637,24689.006483,1391062.125000
1119,1,-0.085520,0.103966,0.021019,-165633.300921,-475739.837054,-86832.254569,327360.289621,-14961.611629,-14518.112095,809395.875000
1120,1,-0.085520,0.103966,0.042037,-162632.124860,-471971.188616,-88515.028739,328697.857701,-1321.454947,-14054.627005,839116.625000
1121,1,-0.085520,0.103966,0.063056,-164999.142857,-476002.383929,-73073.084821,326379.246931,-3251.818351,22706.421317,1075396.000000
1122,1,-0.085520,0.103966,0.084075,-142035.051322,-471468.192941,-61016.036795,270807.734515,-7830.579250,18874.930873,1075396.000000
1123,1,-0.071025,0.089470,0.021019,-39089.258580,-320602.056920,-30184.449149,190886.442592,-11633.405361,-56.769714,446159.718750
1124,1,-0.071025,0.089470,0.042037,-47264.235561,-313542.877232,-35874.913156,199703.956194,-4363.751239,1187.020081,428737.187500
1125,1,-0.071025,0.089470,0.063056,-42397.265276,-312265.054688,-34952.844727,200935.977121,-6970.201747,19006.439662,443373.562500
1126,1,-0.071025,0.089470,0.084075,-34392.116769,-340699.036272,-46001.385899,200232.327288,1405.815308,14415.295846,456744.062500
1127,1,-0.056529,0.074975,0.021019,74690.863351,-205926.699219,13287.243164,63211.110944,-6087.804635,6846.227565,246449.562500
1128,1,-0.056529,0.074975,0.042037,64336.802455,-196389.202009,9752.398019,65836.579102,-2720.303336,1165.383266,237830.031250
1129,1,-0.056529,0.074975,0.063056,61401.077218,-199224.940290,4212.019793,68642.120954,-487.940029,7419.702807,237830.031250
1130,1,-0.056529,0.074975,0.084075,72597.735979,-219760.555246,-8536.822588,82236.928920,13721.660505,-3250.666822,232166.593750
1131,1,-0.042034,0.060480,0.021019,187049.960100,-88324.650739,69426.779332,-60285.744420,-5966.493949,10008.680246,218430.765625
1132,1,-0.042034,0.060480,0.042037,175067.185826,-84049.693917,86855.120815,-54357.682757,-456.653303,645.195923,495375.468750
1133,1,-0.042034,0.060480,0.063056,167206.253906,-88351.622593,76620.089778,-50589.854632,11711.489245,-8539.843658,465140.531250
1134,1,-0.042034,0.060480,0.084075,221450.808594,-96606.522426,61305.101946,-48804.554339,34399.829381,-20360.176261,265206.906250
1135,1,-0.027538,0.045984,0.021019,283764.155692,19936.384487,186764.950509,-191304.753767,-40760.770299,35296.285156,495375.468750
1136,1,-0.027538,0.045984,0.042037,279238.055664,4989.804129,188102.801339,-169935.671317,-725.229248,-3665.332833,446711.062500
1137,1,-0.027538,0.045984,0.063056,285281.426915,20532.035052,179981.024275,-159076.457589,28656.474136,-15691.571882,450408.375000
1138,1,-0.027538,0.045984,0.084075,215444.841146,-163110.169813,105566.046441,-34399.588976,15966.688856,-22504.911431,639408.375000
1139,1,-0.137019,0.097176,0.000000,-83406.050515,-469642.685724,-24592.150746,-365599.539773,-8737.669434,55710.527699,598685.000000
1140,1,-0.158831,0.066073,0.000000,-119138.763672,-486618.528125,-15967.474414,-244783.310938,-22821.692839,5944.832096,324805.750000
1141,1,-0.163667,0.044225,0.000000,-111515.994922,-427110.368750,-13508.521436,-241788.014063,-34695.622485,-16362.143299,392237.406250
1142,1,-0.181168,-0.037203,0.000000,-51103.200195,-281941.956250,-44.308566,189904.457813,-9461.337122,1248.481319,424114.218750
1143,1,-0.159204,-0.066401,0.000000,-137627.671575,-487208.199519,-22446.246779,247139.182692,-14971.267168,-12920.957956,988000.687500
1144,1,-0.153370,-0.103230,0.000000,-30072.600293,-264112.926953,3641.809668,124439.561865,-20624.053223,-25840.889804,359464.343750
1145,1,-0.127449,-0.134614,0.000000,-98594.368945,-256370.905469,18380.724072,149039.346094,-37349.254382,-40721.306664,338345.031250
1146,1,-0.101388,-0.155122,0.000000,-64019.636719,-539294.182292,-11844.317352,352165.622396,16412.875829,30960.594533,585715.312500
1147,1,-0.065643,-0.173349,0.000000,-139860.967529,-325819.695801,-51678.577881,-33935.107910,48869.087646,12197.520996,411181.968750
1148,1,-0.034230,-0.182103,0.000000,-135378.668701,-256673.371094,-8903.969543,-170079.595703,-23004.488051,-15757.875305,464502.375000
1149,1,0.006625,-0.185010,0.000000,-19733.196359,-558255.703125,-70932.828823,42603.742815,8055.080741,-79718.447545,773751.875000
1150,1,0.022546,-0.170184,0.000000,9102.048295,-349332.383168,-17473.632147,244078.410511,56591.516912,-18709.995028,773751.875000
1151,1,0.039862,-0.181261,0.000000,-174235.090495,-200172.571289,-42854.686727,138193.202148,12902.982330,-17118.089762,323839.000000
1152,1,0.064214,-0.157337,0.000000,123594.133594,-261385.225098,41637.322656,-14947.516406,-45153.636719,55824.189709,966084.250000
1153,1,0.085522,-0.149413,0.000000,108082.003646,-460254.710938,-5734.894173,-286466.472917,-21237.446549,19868.514355,852346.937500
1154,1,0.137335,-0.103392,0.000000,-78581.105681,-355785.487132,-15486.674259,-277745.627298,359.447223,-24868.948111,549205.687500
1155,1,0.156161,-0.064960,0.000000,-144625.323568,-415164.763021,-21862.746002,-220462.324219,25106.864868,-7001.388590,571955.062500
1156,1,0.180231,-0.043075,0.000000,-48613.334826,-211892.329869,9142.706020,-146860.320033,17707.463133,5607.141846,325061.343750
1157,1,0.182655,0.030814,0.000000,-20199.835400,-288313.856250,-4396.733002,169860.685938,7964.003491,-4574.124487,373481.406250
1158,1,0.156700,0.064586,0.000000,-126563.088623,-469194.725586,-30541.766788,235982.344238,34130.274231,186.943817,596924.937500
1159,1,0.157480,0.097939,0.000000,-13591.118851,-186599.546204,14114.711075,90131.645813,13112.919220,26082.835663,254562.531250
1160,1,0.091417,0.158584,0.000000,-111019.942758,-511083.355769,-4230.873178,364036.088942,-17690.551579,22526.992009,813560.187500
1161,1,0.059706,0.175398,0.000000,-488704.055804,-600506.756696,-37647.538661,174948.223633,-16928.119271,23134.811872,535729.437500
1162,1,0.019867,0.184061,0.000000,-397015.507629,-815494.929688,6249.507477,-148515.654785,-4173.571289,66628.624741,858913.125000
1163,1,-0.014132,0.185459,0.000000,-343342.113281,-805475.756250,33635.116113,171100.030859,-13967.748682,61629.150684,822371.812500
1164,1,-0.026385,0.169222,0.000000,-242331.920313,-481705.223047,33844.540365,272988.849349,-61563.820874,17421.608650,1391062.125000
1165,1,-0.049315,0.176401,0.000000,-598706.219952,-623761.551082,11099.455078,-67956.339844,29889.034818,39464.045363,760208.937500
1166,1,-0.064038,0.158584,0.000000,-21914.068622,-392646.917725,8245.764573,-158936.139724,37800.592022,10448.882390,615388.375000
1167,1,-0.083529,0.147262,0.000000,19955.561314,-493990.351004,3825.317906,-334661.735491,54226.274309,45450.246916,590616.312500
1168,1,-0.100369,0.136370,0.000000,-122263.341125,-650454.880859,-25858.340027,-308122.811035,-4783.259216,29145.656155,769712.187500
1169,1,0.184757,-0.010085,0.000000,109680.560852,-388481.296875,-22288.893799,-97609.710205,-18732.848938,3858.585262,533888.000000
1170,1,0.166237,-0.080368,0.000000,-78489.251660,-192333.299219,3323.653040,-101965.804297,19147.308447,-5833.752881,571955.062500
1171,1,0.103061,-0.134685,0.000000,-87499.529018,-631093.606306,-68024.224888,-205762.179688,6750.088548,-3535.602644,904165.312500
1172,1,-0.046184,-0.165462,0.000000,53077.137733,-6226.380258,51167.333909,-173441.828801,-10002.410297,19717.957017,464502.375000
1173,1,-0.105187,-0.135698,0.000000,-13024.171520,-602885.505682,-28658.471325,217652.591619,-65.575190,-20157.160012,785594.250000
1174,1,-0.146945,-0.085092,0.000000,-130469.914062,-502333.401786,-21864.336007,258833.800223,-2772.639511,-23765.998465,603426.062500
1175,1,-0.167838,-0.024165,0.000000,72740.896624,-454651.660714,-31185.076939,234717.235491,-7965.928310,40419.790318,507303.375000
1176,1,-0.188215,-0.000464,0.000000,102914.789440,-458556.673295,-25466.139171,-1208.259011,1071.505926,6300.530731,552735.812500
1177,1,-0.164247,0.086062,0.000000,-49631.384905,-194939.113281,5744.502755,-100479.088170,-16626.288688,8915.578265,463637.687500
1178,1,-0.137642,0.116403,0.000000,-99349.722786,-193941.511328,5372.764714,-209239.516276,-15056.137956,17306.571533,460490.468750
1179,1,-0.083421,0.165494,0.000000,-282585.089355,-735429.382812,-34250.261230,-420462.869141,14006.378677,7693.043037,835695.375000
1180,1,0.045866,0.162981,0.000000,-188734.453320,-325921.828125,29095.734375,-28925.601172,8803.419238,-5087.854883,693216.625000
1181,1,0.067859,0.156975,0.000000,10147.774184,-376500.371324,10794.119256,214375.765280,-35302.332692,10800.362879,813560.187500
1182,1,0.101463,0.137474,0.000000,-160693.239633,-537372.506010,-37007.001052,272542.991887,9395.344079,35661.092924,579795.062500
1183,1,0.137280,0.124636,0.000000,-92062.542578,-125215.843164,-6006.320020,152782.352344,12053.986426,4175.371899,307955.468750
1184,1,0.174771,0.062261,0.000000,-93169.179757,-200602.532227,8825.499717,123877.271170,26977.085310,9204.687849,263343.375000
1185,1,-0.167682,0.023588,0.000000,136859.432617,-442713.035714,-12093.636623,-228222.752232,3013.602103,-42757.397461,590733.562500
1186,1,0.044654,-0.163773,0.000000,53882.973437,-20701.327441,43704.520557,155992.950000,-7387.079175,19046.362891,323839.000000
1187,1,0.122052,-0.138680,0.000000,-71609.924023,-222548.991797,29770.452148,-104431.799609,36070.254956,-21412.338037,300933.750000
1188,1,0.147741,-0.083288,0.000000,-143735.230835,-455833.875977,-30012.164719,-234288.919922,8891.840378,-22039.682526,549205.687500
1189,1,0.169827,-0.024482,0.000000,52600.081112,-386777.161765,-16419.402200,-201802.893842,-11542.579590,34337.987190,533888.000000
1190,1,-0.084838,-0.146651,0.000000,130599.841797,-511106.424609,3890.958496,180471.112207,48826.360065,24303.642554,913628.000000
1191,1,0.166050,0.044198,0.000000,-94024.737571,-360543.291193,-17502.107727,219459.181108,30487.621271,-15967.072266,615951.750000
1192,1,0.137242,0.103353,0.000000,-59255.642361,-258414.016493,-6974.255642,298376.057292,15641.171875,39835.629340,913840.750000
1193,1,-0.163983,-0.044426,0.000000,-135902.186279,-483562.078125,-28104.020315,251484.418945,-21953.742348,12894.412903,619603.750000
1194,1,-0.135089,-0.101700,0.000000,-48968.609863,-374508.300781,7172.458691,295881.415625,-1892.745703,-35486.124780,603426.062500
1195,1,0.184144,0.010519,0.000000,119606.351270,-385115.334375,-22863.144336,66865.953320,-13888.476367,-4510.812781,485164.218750
1196,1,0.166457,0.080313,0.000000,-60569.626221,-204791.324414,-1216.884570,94657.323633,29321.297302,16546.685449,321602.031250
1197,1,0.122314,0.139274,0.000000,-110238.538411,-213703.698079,17455.997640,118736.908040,27209.017242,36309.849121,325449.218750
1198,1,0.040010,0.180222,0.000000,-565163.115625,-616204.595313,-16319.396545,-59755.192871,-8419.824219,31697.623822,535729.437500
1199,1,0.003350,0.188488,0.000000,-349045.552885,-851211.490385,51812.150053,-37538.637019,-13315.961567,94620.683444,648615.687500
1200,1,-0.100238,0.154997,0.000000,-112400.610937,-539575.587500,-14405.909229,-346232.662500,-3247.269128,-2259.594427,835695.375000
1201,1,-0.130268,0.134383,0.000000,-129722.451705,-172033.272150,5947.352450,-141206.593129,-7977.206898,-5312.437389,139723.343750
1202,1,-0.152982,0.101652,0.000000,-41362.473242,-196368.735156,3583.966113,-105494.565952,-20520.059766,13506.294604,290770.468750
1203,1,-0.180991,0.036684,0.000000,-32970.902637,-289012.052344,-4320.661230,-213049.925000,-19234.591713,-6639.079136,410854.593750
1204,1,-0.184648,0.016540,0.000000,82877.605273,-406739.662500,-22312.585461,-138274.225781,7520.364307,-2306.980005,590733.562500
1205,1,-0.184703,-0.017068,0.000000,55761.449829,-398020.144531,-12513.966187,147864.905273,9141.173035,8968.962672,587563.125000
1206,1,-0.140807,-0.119309,0.000000,-80920.736182,-259484.494531,355.897510,192138.815625,-2802.948875,-3586.822144,314213.218750
1207,1,-0.083591,-0.164720,0.000000,-190033.403320,-759453.132812,-106990.674963,290382.976270,46847.361426,-21474.617383,832360.375000
1208,1,-0.013862,-0.184014,0.000000,-28654.442034,-551996.361607,-52585.576904,-112876.133092,-29693.810442,-63382.993094,747262.375000
1209,1,0.059085,-0.175360,0.000000,-158842.147266,-351330.135254,-38594.215430,6271.346558,-13904.127551,1192.872131,323839.000000
1210,1,0.137350,-0.124791,0.000000,-91985.511328,-156523.541797,1423.819482,-162598.468359,21878.010449,1873.563086,322355.468750
1211,1,0.173839,-0.061965,0.000000,-75939.927769,-189343.284319,3773.050249,-105039.346191,32988.909947,-5437.732483,253057.562500
1212,1,0.157435,-0.098365,0.000000,-33506.904572,-208214.925171,7599.024048,-87670.037109,18326.332092,-10043.518280,114675.312500
1213,1,0.078034,-0.168700,0.000000,-172774.750391,-679981.239941,-69124.837646,-412134.767188,-36457.331006,18072.349023,963248.375000
1214,1,0.076845,0.171436,0.000000,-398176.675426,-656852.690341,-30092.918482,396227.004261,2017.046431,10390.790095,827978.312500
1215,1,0.169219,-0.000340,0.000000,263481.806071,-328727.437500,14185.345215,-23011.256836,-44332.281901,4129.104340,533888.000000
1216,1,-0.171723,-0.000224,0.000000,286200.065430,-398698.630682,-15131.427734,1900.292569,24632.395952,1892.256792,587563.125000
1217,1,0.119463,0.120536,0.000000,-195831.648996,-187314.506592,4597.009521,231804.575614,17122.781948,41762.130162,595443.375000
1218,1,0.119712,-0.120004,0.000000,-167050.198893,-224277.280884,5959.216024,-164326.350260,19710.347717,-36033.079549,477944.218750
1219,1,-0.001397,-0.169281,0.000000,30987.753125,-862190.775000,-38992.766992,-5532.961914,-9564.673340,-94360.769287,747262.375000
1220,1,0.182566,0.047283,0.000000,-71015.570046,-165218.067116,12703.826771,134880.169744,15776.113991,8598.932551,373481.406250
1221,1,0.109945,0.152310,0.000000,-72498.069543,-323266.078125,25820.202336,198505.442007,1002.044124,26094.317392,282723.687500
1222,1,-0.164465,-0.086666,0.000000,-72587.549194,-234756.138184,4503.277466,104231.572754,-23761.415649,-18520.337357,300822.187500
1223,1,-0.066448,-0.156018,0.000000,192337.171840,-176026.231306,53430.889858,-75747.894671,31917.920968,27487.684710,411181.968750
1224,1,0.147842,0.083153,0.000000,-182117.322591,-500714.731771,-36176.684570,265318.236979,11162.807017,40632.532389,596924.937500
1225,1,-0.176891,0.056404,0.000000,-92402.536572,-217892.985254,9333.614209,-140923.189062,-26786.899512,5797.864355,392237.406250
1226,1,0.150454,0.113704,0.000000,-9514.029597,-157861.671058,15279.612380,111193.365234,11446.425347,11474.463696,307955.468750
1227,1,-0.031920,0.185351,0.000000,-614595.513393,-778661.767857,11555.442871,117464.614816,1861.753401,-3772.021782,831803.187500
1228,1,-0.177118,-0.056597,0.000000,-88189.509155,-210362.772461,6331.376728,145075.165527,-20738.615646,-6908.084595,410407.875000
1229,1,-0.068712,0.174896,0.000000,-622206.146307,-763077.948864,-47683.282670,-286275.568182,13066.212402,30331.437678,869973.812500
1230,1,0.023798,-0.187023,0.000000,-133658.559304,-399646.461648,-105684.840021,152129.891335,17038.843520,-60527.644709,542091.625000
1231,1,0.106551,-0.152144,0.000000,-46041.619141,-421613.183594,6840.647095,-229520.893555,8836.692871,22190.484436,852346.937500
1232,1,-0.116403,0.144068,0.000000,-139351.400594,-420676.609375,5626.908162,-200227.914714,-11399.131185,13961.233663,400315.312500
1233,1,-0.050975,-0.181534,0.000000,-193015.942308,-118797.897987,-40212.998094,-57983.301082,-6567.179913,-18813.571514,218721.328125
1234,1,0.186421,-0.027505,0.000000,49884.145237,-317942.010417,-10382.936957,-145129.506944,2578.103109,-4785.842221,345017.781250
1235,1,0.150478,-0.113828,0.000000,-19868.938151,-150384.192708,10127.662326,-99206.004123,17830.330621,-6419.074280,99864.093750
1236,1,0.094199,-0.163641,0.000000,-197585.957741,-397781.590909,-6240.770597,-455806.610795,6989.844283,29678.253618,852346.937500
1237,1,-0.174203,-0.073145,0.000000,-52701.362393,-123573.121538,27129.522688,76646.567472,-8798.780107,-12876.939292,214491.781250
1238,1,-0.174039,0.072920,0.000000,-64220.458008,-102135.332386,25986.253462,-66679.230824,-17417.282193,15840.436773,324805.750000
1239,1,-0.023445,-0.167842,0.000000,-12459.704987,-359617.514847,10100.610962,-258844.026367,-63540.266090,-23551.744568,464502.375000
1240,1,0.082693,0.144442,0.000000,-54284.923968,-490603.808036,3888.807129,336258.325893,-35331.920480,29832.042690,813560.187500
1241,1,0.163064,-0.046138,0.000000,-113827.817243,-484080.828125,-31311.285017,-224375.893973,29428.620257,18220.960972,567181.937500
1242,1,-0.044416,0.160507,0.000000,58820.193537,-108251.172319,104361.418857,90625.267401,-18108.522727,6835.525779,758128.812500
1243,1,0.168044,0.021699,0.000000,105250.423758,-388605.883929,-14422.980342,198373.246652,-12342.237026,-33511.058524,770318.562500
1244,1,-0.147042,0.083948,0.000000,-148397.932861,-537590.770833,-34969.062581,-276147.462240,-11716.634491,20929.305420,954175.000000
1245,1,-0.117193,0.124950,0.000000,-244599.277393,-331050.711426,-17317.290430,-229569.784766,-11039.042822,15238.865283,460490.468750
1246,1,-0.121168,-0.118300,0.000000,-140978.576497,-247470.588542,12981.584188,219076.496745,-11884.717448,-55681.718852,684970.062500
1247,1,0.001131,0.171913,0.000000,-146722.979528,-963677.532895,-33638.113056,-34161.876163,-8812.367367,98632.927118,1047058.062500
1248,1,0.025313,0.167562,0.000000,-218487.402384,-577666.457031,12276.199148,-243354.026042,42667.403575,55205.531738,881586.062500
1249,1,-0.116905,-0.147911,0.000000,-90111.416466,-392553.185096,8801.951623,194466.845553,-17040.275597,-12908.210177,585715.312500
1250,1,0.129870,0.084676,0.084075,-193450.835938,-576412.847656,-89234.619629,374003.589844,15185.586319,-17150.899368,979322.625000
1251,1,0.129870,0.084676,0.063056,-241766.345052,-616065.002604,-127516.628881,378258.053385,4785.762278,-7868.339783,931688.437500
1252,1,0.129870,0.084676,0.042037,-253477.367839,-618448.627604,-130067.894669,376234.414062,-2533.585103,7036.166280,556762.000000
1253,1,0.129870,0.084676,0.021019,-252677.995536,-631893.386161,-103318.936175,354617.258929,-18363.273926,32807.132533,1054773.250000
1254,1,0.139305,0.068048,0.084075,-197323.751302,-696081.523438,-95220.248535,311293.372396,-385.248515,-1921.265381,956606.375000
1255,1,0.139305,0.068048,0.063056,-245933.534505,-710231.270833,-136945.605570,325462.947917,5764.530813,-8610.239096,931688.437500
1256,1,0.139305,0.068048,0.042037,-236322.994792,-703858.453125,-124021.257589,325749.347656,-620.540011,19809.459812,924537.312500
1257,1,0.139305,0.068048,0.021019,-206758.567522,-672801.622768,-90995.216727,325051.335938,-3653.818209,6782.071673,885628.125000
1258,1,0.146620,0.050386,0.084075,-126314.408594,-707458.606250,-77925.905225,277508.323437,-10894.097705,23606.362793,862059.187500
1259,1,0.146620,0.050386,0.063056,-135396.749302,-671857.066964,-105207.010080,264905.765625,1372.389099,-104.561087,904276.625000
1260,1,0.146620,0.050386,0.042037,-146143.349414,-740099.959375,-112433.805859,308704.595313,-14592.306226,7371.242918,835730.250000
1261,1,0.146620,0.050386,0.021019,-110321.269922,-736074.600000,-83772.535718,320185.842187,18956.684094,-14071.229199,904153.000000
1262,1,0.151707,0.031957,0.084075,-38071.187256,-574859.762500,-66823.060059,236808.029688,-14562.292627,57830.044922,897262.625000
1263,1,0.151707,0.031957,0.063056,-84242.046910,-556778.982143,-87746.705636,240177.847098,-1470.983372,20799.259347,717317.500000
1264,1,0.151707,0.031957,0.042037,-80481.456177,-559351.666667,-99108.050456,239831.411458,-589.699280,-13847.151627,835730.250000
1265,1,0.151707,0.031957,0.021019,-60001.938965,-568794.178571,-71771.382533,265078.638393,333.293004,-35301.663958,835730.250000
1266,1,-0.105366,0.135412,0.105093,-148112.913352,-626325.264915,-20568.656683,-210049.749645,7930.432884,-27727.347390,801841.187500
1267,1,-0.101602,0.155260,0.105093,-89870.870313,-503941.409375,28442.110742,-334561.848438,4658.081787,-3698.093201,801841.187500
1268,1,-0.066696,0.156023,0.105093,53884.855469,-377432.139509,29349.448905,-162731.412667,-44891.568917,-12464.276825,532581.812500
1269,1,-0.046351,0.165560,0.105093,-102851.003305,-280031.054087,37995.993108,63827.131611,4186.984159,-21851.607638,772699.562500
1270,1,-0.034277,0.182269,0.105093,-622188.199219,-741621.269531,19397.527161,143450.978271,-5626.048325,-34936.797272,836094.687500
1271,1,0.006620,0.185012,0.105093,-327468.360156,-851349.793750,10840.396826,-47493.833691,5766.375293,-79556.975586,899874.625000
1272,1,0.022561,0.170228,0.105093,-194669.493690,-594874.424279,-5210.619554,-240175.962139,-43873.644681,-46003.996094,828595.687500
1273,1,0.039914,0.181368,0.105093,-460032.964425,-534256.954241,-4895.357631,-13032.045061,6921.516671,-41264.929129,829815.625000
1274,1,0.064224,0.157189,0.105093,30311.841727,-390684.530169,3393.365635,211456.921177,34799.131836,-9866.635951,710492.625000
1275,1,0.085283,0.149291,0.105093,-40603.254132,-439579.786058,9342.804502,313018.983173,41900.954627,-31925.921208,665840.875000
1276,1,0.136924,0.103478,0.105093,-107015.914062,-349187.702665,-19648.145996,303840.614890,10648.860983,-21788.446533,979322.625000
1277,1,0.156077,0.064888,0.105093,-120882.314062,-394538.825000,-12687.863086,203281.742969,-35129.347949,-4814.299753,534194.937500
1278,1,0.180224,0.043067,0.105093,-47665.766846,-201237.337646,7630.235382,186039.806641,-17721.257690,-3767.258728,462115.593750
1279,1,0.182655,-0.030814,0.105093,-21634.106445,-282102.074219,-9590.801620,-171556.679688,-13057.781357,1386.093597,428613.531250
1280,1,0.156700,-0.064586,0.105093,-114198.276953,-402637.915625,-5382.970789,-186017.118750,-12017.238965,13710.027051,524502.500000
1281,1,0.157480,-0.097939,0.105093,-12776.559280,-203960.182129,6713.037354,-77897.126953,-18654.672333,17483.017204,234242.078125
1282,1,0.091417,-0.158584,0.105093,-2473.634315,-488582.966346,-27879.359013,-351421.813702,28858.255136,-18719.850567,819849.437500
1283,1,0.059706,-0.175398,0.105093,-169077.106445,-388867.613839,-102624.069057,1626.970529,16150.033168,11065.225935,302786.406250
1284,1,0.019867,-0.184061,0.105093,-65205.284668,-423599.173177,-66522.395101,170875.440755,-24592.348267,55810.793945,747192.750000
1285,1,-0.014132,-0.185459,0.105093,-26975.110596,-519088.253906,-9853.383362,-125478.471436,19339.829544,57647.640015,804925.812500
1286,1,-0.026385,-0.169222,0.105093,-185.686790,-263618.873280,-1359.448153,-227022.493608,27550.646973,-12704.153098,1079992.625000
1287,1,-0.049315,-0.176401,0.105093,-156053.253606,-145448.160081,-37589.750300,-104189.556791,-1928.354149,89.465557,394177.625000
1288,1,-0.064038,-0.158584,0.105093,170949.692984,-162543.847919,25969.959650,-47116.812951,-36829.099534,-30480.363920,298914.500000
1289,1,-0.083529,-0.147262,0.105093,175931.890625,-483551.088013,-12030.322347,191023.351400,-58892.280029,-17741.460449,705800.875000
1290,1,-0.137135,-0.097676,0.105093,-101736.680525,-551385.964286,-19595.621373,343857.555804,-32351.164342,55398.685268,671289.687500
1291,1,-0.159009,-0.066398,0.105093,-146017.535156,-533626.936458,-22775.604484,247093.238542,22452.517961,9677.152181,655638.250000
1292,1,-0.163733,-0.044310,0.105093,-118407.232747,-543745.992188,-28048.913930,249283.933594,23990.769470,-29208.841268,935341.187500
1293,1,-0.181168,0.037203,0.105093,-51243.430762,-265000.650781,-1013.070679,-197069.107813,21299.335278,4803.376465,303842.562500
1294,1,-0.159204,0.066401,0.105093,-153502.978776,-513320.913542,-22876.517383,-250579.442188,21779.801579,-14564.941402,619766.062500
1295,1,-0.153384,0.103216,0.105093,-35947.336523,-252186.585742,-5747.362744,-149535.727588,26905.378845,-43320.156689,357965.968750
1296,1,-0.127499,0.134554,0.105093,-141152.807031,-185235.139844,18853.113770,-129392.182031,31202.965594,-31694.623047,326175.281250
1297,1,0.184757,0.010085,0.105093,93137.093262,-370874.884375,-23358.906714,119285.554541,13851.868311,-1109.306067,597231.937500
1298,1,0.147635,0.083303,0.105093,-102468.919824,-405376.557812,-27643.942090,185719.687500,-25796.630493,-31234.384912,538175.437500
1299,1,0.121439,0.138740,0.105093,-121186.668620,-226749.410319,11255.901489,110457.592285,-18922.751668,-19689.203941,344669.625000
1300,1,-0.146947,0.085090,0.105093,-140881.277483,-518922.678571,-24600.811646,-280588.852679,15492.760829,-44738.746652,950271.687500
1301,1,-0.167839,0.024164,0.105093,79767.619922,-384273.693750,8143.808374,-232156.547656,2728.720605,21356.654492,573746.000000
1302,1,-0.188217,0.000462,0.105093,77254.054310,-440975.673295,-18618.529386,3546.420332,-5337.165372,7350.442694,484704.093750
1303,1,-0.147135,-0.084350,0.105093,-138708.162476,-487993.065430,-26581.728546,257208.939697,1374.805283,29834.283020,655638.250000
1304,1,-0.137708,-0.116666,0.105093,-75962.655550,-182010.947754,20403.408805,217743.253125,13573.010254,13624.363241,294581.468750
1305,1,-0.100371,-0.136374,0.105093,55635.999023,-643876.187500,-22840.940332,196368.760156,-14386.789771,1147.721484,787078.125000
1306,1,-0.083421,-0.165494,0.105093,-244792.456348,-899290.550000,-205752.900586,375461.566602,-35180.341309,10428.423828,1033534.812500
1307,1,0.045866,-0.162981,0.105093,113109.302734,-16266.095505,51281.194443,149087.944633,-15618.464020,-27247.210327,260229.218750
1308,1,0.067859,-0.156975,0.105093,243325.799479,-221544.150521,17391.404036,-43379.867188,41247.874479,-27564.891593,788673.000000
1309,1,0.101463,-0.137474,0.105093,-2452.711238,-546571.300481,-27168.404785,-210006.478365,3162.049316,20136.412377,437245.875000
1310,1,0.137280,-0.124636,0.105093,-90784.334375,-170543.078125,-10468.931580,-153530.546484,-14957.411084,1128.700525,301235.656250
1311,1,0.174771,-0.062261,0.105093,-89876.730078,-178827.897656,1075.893555,-117089.975537,-15616.656689,7595.329492,193654.140625
1312,1,-0.085091,0.146800,0.105093,32774.826009,-563599.904948,24663.576172,-361259.044271,-49543.726695,-21701.362447,1103747.000000
1313,1,0.137242,-0.103353,0.105093,-63432.641779,-347493.984908,-7387.876065,-266619.644886,-2082.990612,24286.229892,539656.687500
1314,1,0.166050,-0.044198,0.105093,-94640.627704,-330964.823317,-19949.320989,-203094.834736,-26846.322782,-5872.305138,485312.093750
1315,1,-0.135116,0.101655,0.105093,-70663.642578,-344233.229687,587.928711,-334342.759375,12624.543262,-33051.041211,1160627.125000
1316,1,-0.163983,0.044426,0.105093,-120493.373291,-472790.505859,-26761.525635,-238810.791504,23771.370926,19504.351440,943713.437500
1317,1,0.169825,0.024480,0.105093,81610.115292,-373439.204963,-14458.854923,221871.498621,5851.162856,31271.702522,682690.125000
1318,1,0.166126,0.080361,0.105093,-82794.227734,-175268.327344,7410.541943,98456.573047,-31363.060498,-19014.171973,246227.187500
1319,1,-0.167699,-0.023607,0.105093,93746.213542,-412527.445312,-31339.943929,221311.341797,2316.766032,-38689.455404,640062.875000
1320,1,0.184144,-0.010519,0.105093,87192.055084,-380984.515625,-14825.004686,-78065.066940,10023.314911,-8045.661179,597231.937500
1321,1,0.166457,-0.080313,0.105093,-72112.049121,-198227.653125,4326.664258,-90981.923047,-7287.624023,10244.271375,524502.500000
1322,1,0.122314,-0.139274,0.105093,-87522.808221,-266390.999349,1969.057129,-115822.265299,-30307.258687,5184.383647,301235.656250
1323,1,0.040010,-0.180222,0.105093,-173358.149414,-182752.498291,-28437.050446,153902.555664,-9661.297180,8835.954102,533401.000000
1324,1,0.003350,-0.188488,0.105093,-99169.644354,-635607.803977,-111769.705522,37411.373047,-11768.175648,83434.624645,490142.906250
1325,1,-0.100239,-0.154998,0.105093,-18024.610742,-548955.615625,-8993.387160,351932.810937,-6412.384888,-42544.783594,1033534.812500
1326,1,-0.130284,-0.134440,0.105093,-154126.668750,-252763.734375,-15136.866162,152831.702344,9065.818762,-10032.724121,408235.125000
1327,1,-0.153042,-0.101973,0.105093,-66174.963379,-293097.431641,3055.942200,140116.122375,11014.092651,22132.780090,651878.500000
1328,1,-0.181034,-0.036726,0.105093,-31832.742969,-281479.445312,-3374.854590,200504.317188,9816.999170,874.206122,634995.250000
1329,1,-0.184659,-0.016551,0.105093,73379.118896,-370471.519531,-12970.111938,153391.432617,-14132.946594,-1152.030361,449341.062500
1330,1,-0.184705,0.017067,0.105093,72230.859766,-407710.850000,-13492.047656,-152208.911719,-11313.349194,7245.262885,573746.000000
1331,1,-0.140834,0.119260,0.105093,-87945.600391,-217595.000781,-4129.105566,-197993.181250,-584.638892,-18969.391138,357965.968750
1332,1,-0.083773,0.164863,0.105093,-271351.844922,-738134.675000,-23467.350378,-380702.768750,-10771.333276,10165.155499,872340.812500
1333,1,-0.013883,0.184056,0.105093,-365007.130664,-843714.725000,28917.772180,170404.598828,-3111.266284,-81470.529297,836094.687500
1334,1,0.059141,0.175271,0.105093,-478291.678125,-639700.809375,-26533.908594,197011.626367,11940.552197,-8751.777148,1037007.500000
1335,1,0.106257,0.152069,0.105093,-87414.782471,-358537.674805,1139.068024,205470.452637,-13385.194893,-15608.488298,469510.343750
1336,1,0.136915,0.124888,0.105093,-125698.124414,-135425.222949,-2627.026318,162884.240918,-8118.704517,-4630.314136,290986.875000
1337,1,0.173804,0.061949,0.105093,-89411.756250,-165325.353906,8011.894382,124939.284277,-27981.809277,-13249.822168,534194.937500
1338,1,0.044697,0.163731,0.105093,-29646.022949,-243867.621826,29073.269440,5577.222656,5237.208801,-16516.487549,379605.562500
1339,1,0.076845,-0.171436,0.105093,-450128.102983,-812575.230114,-203774.046847,-468390.625000,31852.334184,27868.554688,819849.437500
1340,1,0.077971,0.168583,0.105093,-299055.003516,-585911.825000,-18582.124170,395082.370312,20209.456396,1740.475293,1037007.500000
1341,1,0.169219,0.000340,0.105093,304790.970319,-310055.378348,19453.843785,12992.899527,36431.484305,-6128.506871,580728.062500
1342,1,-0.171728,0.000219,0.105093,320338.497702,-365897.785846,19580.376953,-6398.487017,-25035.822007,-1382.355672,611806.625000
1343,1,-0.001411,0.169310,0.105093,-140939.274972,-1006796.933036,-31721.123465,27222.409877,9850.505406,-78677.877319,1179180.250000
1344,1,0.119463,-0.120536,0.105093,-170242.595982,-234719.163783,11994.130162,-219600.792969,-2337.133196,18805.056850,301235.656250
1345,1,0.119351,0.120038,0.105093,-272115.732701,-218416.111189,5199.070661,236588.461775,5620.695121,-26674.036586,765345.812500
1346,1,0.182566,-0.047283,0.105093,-63909.159801,-151414.400213,1203.856978,-132259.161222,-10949.868040,7232.335347,210490.796875
1347,1,-0.065797,0.173661,0.105093,-507516.542969,-717695.948242,-38767.469330,-210371.630859,-36671.038330,18868.594238,532581.812500
1348,1,0.109945,-0.152310,0.105093,-41871.546582,-420924.588542,-5394.699030,-213537.629167,-9145.196163,-6854.537297,437245.875000
1349,1,-0.164468,0.086664,0.105093,-52656.040039,-242069.925293,7937.932312,-110879.825439,21943.201904,-28477.600769,320633.406250
1350,1,-0.164376,-0.086363,0.105093,-57234.824724,-190219.538923,5762.668422,78169.905204,22331.568176,9694.950893,91839.593750
1351,1,0.147842,-0.083153,0.105093,-133232.399312,-436970.921007,-32603.813449,-207099.584093,-10117.710659,20663.391476,616734.812500
1352,1,-0.031920,-0.185351,0.105093,-110191.433464,-306689.660938,-51334.119543,-146945.300000,20603.031118,28946.044824,497365.750000
1353,1,-0.177118,0.056597,0.105093,-118475.185791,-205444.677490,1133.903839,-136364.642578,28796.557861,-785.393005,303842.562500
1354,1,-0.176987,-0.056528,0.105093,-90683.278285,-230760.912249,15227.987978,152077.452288,6844.466649,11474.377629,193041.828125
1355,1,-0.068712,-0.174896,0.105093,-156330.369366,-440126.027719,-121702.400766,21527.611929,-5770.427354,21011.939002,177716.703125
1356,1,0.150454,-0.113704,0.105093,-4200.414462,-150964.382369,13471.043579,-91402.528409,-7314.255902,5168.466519,270088.218750
1357,1,-0.051048,0.181650,0.105093,-712580.375000,-646969.172476,-11915.669302,-135560.279297,-25691.792828,-61669.887083,823310.812500
1358,1,0.023811,0.187053,0.105093,-463260.167614,-659388.960227,15363.724254,-101751.669212,5749.300545,-57681.416548,831781.875000
1359,1,0.157282,0.098399,0.105093,-34518.600220,-224957.326660,12670.994141,79929.675476,-19729.886078,-18896.822937,538175.437500
1360,1,-0.116408,-0.144082,0.105093,-52571.254687,-405767.640625,10687.409961,161078.086719,19361.524042,10477.141699,477377.750000
1361,1,0.186419,0.027503,0.105093,-1368.588341,-270547.598558,-5166.932974,150014.025240,3499.265043,-4309.994850,417344.468750
1362,1,0.150278,0.113872,0.105093,-26457.254061,-128332.052584,14167.403658,73008.266264,-6193.717680,-2970.745436,278497.031250
1363,1,-0.174203,0.073145,0.105093,-51429.115412,-121922.563210,29984.208540,-78128.620561,12071.904652,-14577.360662,144336.921875
1364,1,-0.174120,-0.073071,0.105093,-50482.182454,-88189.204427,19057.354441,69665.977322,18258.499932,9592.273851,215241.406250
1365,1,-0.023487,0.167898,0.105093,-224252.893032,-599534.611607,14488.024693,341646.438616,64235.736328,-38694.154925,811260.437500
1366,1,0.082693,-0.144442,0.105093,251002.629464,-338214.703125,26300.380859,-212016.449219,44331.927107,-10234.350734,517809.875000
1367,1,0.163043,0.046121,0.105093,-78409.795247,-365656.505208,-24631.918783,213324.479167,-31418.956421,12641.731425,534194.937500
1368,1,0.094080,0.163578,0.105093,-177900.917690,-416802.084821,-776.266183,357136.258929,7825.152344,-10889.912685,709367.875000
1369,1,-0.044416,-0.160507,0.105093,163159.048473,38705.987305,82857.660344,-149486.134943,41397.643510,-28574.005105,298914.500000
1370,1,0.168044,-0.021699,0.105093,81510.647108,-377705.247396,-6756.252085,-201613.294271,9172.777312,-34147.587199,746774.125000
1371,1,0.102837,0.134745,0.105093,-203826.091797,-509908.092969,-44766.723752,231206.217969,5770.505859,-46129.823047,687645.312500
1372,1,-0.117208,-0.125007,0.105093,-162049.010986,-308778.062109,-32418.490381,142576.469238,6187.294434,17033.774463,403076.593750
1373,1,-0.121216,0.118227,0.105093,-197863.438802,-205996.790690,6279.819946,-247490.436523,-2712.100667,-43185.411845,441198.468750
1374,1,0.001131,-0.171913,0.105093,12027.203646,-838563.902083,-13578.726172,-15807.766715,-1603.120835,45918.388346,1079992.625000
1375,1,0.025313,-0.167562,0.105093,9282.802734,-384902.678650,2989.732700,288900.488281,-57563.668132,7962.850423,747192.750000
1376,1,-0.116994,0.147869,0.105093,-92937.850962,-321749.733774,7906.892249,-140954.872596,11190.974032,-16377.133160,801841.187500
1377,1,0.103966,0.085520,0.021019,249351.081124,49643.634905,164623.895508,242927.497698,-10291.452759,-46598.143415,460077.687500
1378,1,0.103966,0.085520,0.042037,253072.857492,54318.262277,158349.820033,234291.315290,-7069.277348,-14714.462588,1108859.875000
1379,1,0.103966,0.085520,0.063056,259188.841239,54207.337612,143886.469029,232513.446708,-672.586591,3571.853838,296195.593750
1380,1,0.103966,0.085520,0.084075,256741.807757,35864.181083,111851.967913,229496.543806,3885.986082,19179.451172,570288.875000
1381,1,0.089470,0.071025,0.021019,218885.162667,-52365.881696,64416.355974,91075.024414,-24025.388811,-20580.324393,606622.250000
1382,1,0.089470,0.071025,0.042037,219478.343750,-33625.765346,78605.094517,100211.005720,-9508.469796,-8734.601388,281974.875000
1383,1,0.089470,0.071025,0.063056,224494.180246,-34986.421875,73591.334164,100283.418597,-8590.163888,440.806514,570019.750000
1384,1,0.089470,0.071025,0.084075,225178.378348,-46227.425502,57284.848882,89819.526498,-5632.998820,8857.197754,570288.875000
1385,1,0.074975,0.056529,0.021019,105772.991978,-164140.778460,-4060.073295,-30474.036412,-17378.846261,-6572.277584,390784.000000
1386,1,0.074975,0.056529,0.042037,106271.723005,-137743.555525,3535.338431,-13531.760742,-5333.202917,2018.103049,281974.875000
1387,1,0.074975,0.056529,0.063056,104728.914760,-135085.380580,6502.637556,-15025.588030,-3341.040671,5448.785734,270578.812500
1388,1,0.074975,0.056529,0.084075,102922.528538,-160395.471261,4765.613456,-22120.192104,4165.888506,13657.551644,207810.109375
1389,1,0.060480,0.042034,0.021019,4337.351911,-265601.483259,-51237.403181,-148523.503209,-14367.459819,4478.239022,273653.468750
1390,1,0.060480,0.042034,0.042037,9548.430385,-225533.785156,-35383.766392,-129079.044817,3924.417059,13210.376753,589336.875000
1391,1,0.060480,0.042034,0.063056,3202.489022,-223794.628348,-34288.172573,-128600.973668,7176.593353,17298.275356,589336.875000
1392,1,0.060480,0.042034,0.084075,-5593.086278,-310621.513393,-36401.174107,-142386.263672,11513.644566,31688.905413,778979.562500
1393,1,0.045984,0.027538,0.021019,-79487.143880,-372522.425781,-70610.242513,-230335.149740,-3619.386634,7946.154037,507756.062500
1394,1,0.045984,0.027538,0.042037,-103256.530308,-372495.693638,-71127.073138,-218701.742188,850.115953,27283.365605,589336.875000
1395,1,0.045984,0.027538,0.063056,-103177.448800,-388257.320592,-78087.122925,-203232.204450,1314.407801,36407.175694,778979.562500
1396,1,0.045984,0.027538,0.084075,-3861.122830,-387143.115451,-35490.806464,-56753.390815,-11541.721096,-21433.477539,767983.312500
1397,1,0.051988,0.013043,0.021019,654629.745536,-54703.970529,110387.025251,23547.519741,55230.607213,-6953.447981,546404.125000
1398,1,0.051988,0.013043,0.042037,649568.165179,-30581.575893,129665.558733,23343.535435,16405.531355,-3763.901812,561954.062500
1399,1,0.051988,0.013043,0.063056,638945.236607,-35485.857352,106860.157366,28508.728426,-23818.892439,-3448.995802,737872.000000
1400,1,0.051988,0.013043,0.084075,635838.196429,-60766.238421,90434.152832,35717.676889,-50710.413888,4355.127651,633846.437500
1401,1,0.072488,0.013043,0.021019,674896.875000,-1720.362494,33897.138672,11392.883545,16437.101520,-5844.765186,684205.562500
1402,1,0.072488,0.013043,0.042037,696009.968750,7940.963662,48450.836635,8953.344256,11729.281464,-6956.191328,682813.000000
1403,1,0.072488,0.013043,0.063056,690137.857143,9274.312093,48295.995361,7021.277342,-4314.440988,1382.530666,665604.812500
1404,1,0.072488,0.013043,0.084075,670356.058036,2647.156965,37036.051985,4937.486448,-14402.674264,8230.013567,673436.312500
1405,1,0.092988,0.013043,0.021019,686408.500000,-1694.840698,15778.217285,7706.871908,-1379.615458,-2209.122910,684205.562500
1406,1,0.092988,0.013043,0.042037,711928.482143,-800.189965,12573.861503,7425.394775,4215.137447,-2463.664210,684205.562500
1407,1,0.092988,0.013043,0.063056,707932.035714,-562.349743,14703.422782,6239.487034,2654.948800,1995.272106,719323.437500
1408,1,0.092988,0.013043,0.084075,675390.129464,-195.111118,7804.112462,2927.227809,808.748670,6045.110435,633816.250000
1409,1,0.113487,0.013043,0.021019,695531.352679,-250.611607,21255.573504,5931.752256,-6388.747672,-3998.392615,669337.875000
1410,1,0.113487,0.013043,0.042037,719085.540179,2225.934239,32608.586984,4392.638772,-264.108089,355.577110,700531.687500
1411,1,0.113487,0.013043,0.063056,716298.879464,-21.452266,31123.582345,3585.114594,8780.838702,4509.101336,693016.250000
1412,1,0.113487,0.013043,0.084075,686204.968750,-1050.221174,18447.298261,825.060155,11330.786996,6486.122493,684829.625000
1413,1,0.133987,0.013043,0.021019,697555.757812,-2003.131897,73282.784817,3853.164555,-21469.709824,2472.011767,614696.937500
1414,1,0.133987,0.013043,0.042037,715002.379464,-5995.798793,99840.081473,2455.978751,-3829.694842,4906.514548,700829.000000
1415,1,0.133987,0.013043,0.063056,714234.254464,-4349.280483,98504.905552,3440.680407,20210.651751,6386.609370,693016.250000
1416,1,0.133987,0.013043,0.084075,697015.870536,-2665.674177,80083.567592,2832.836600,36959.032715,7614.432593,693016.250000
1417,0,0.158272,-0.060719,0.094758,-132731.692383,-434450.237630,-22840.704931,-205451.560221,-15946.343669,-4541.736247,485312.093750
1418,0,0.156105,-0.075587,0.091602,-124732.628418,-364104.433594,-4736.647156,-170386.754785,4522.825049,4845.036066,616734.812500
1419,0,0.172517,-0.068874,0.073550,-59980.880894,-144356.739328,25535.128492,-63277.107161,66.605749,9454.912650,282566.937500
1420,0,0.170554,-0.071136,0.094927,-92813.846008,-211175.534180,-2675.216049,-87451.399170,-3155.527283,12068.733681,193654.140625
1421,0,0.158667,-0.060764,0.073545,-142497.923340,-434343.183594,-40783.291469,-198347.162877,-1137.133498,1363.025151,445837.062500
1422,0,-0.155463,-0.104967,0.089847,-41297.042383,-230992.395020,17113.421851,92726.317700,11918.968280,2526.311896,213108.218750
1423,0,-0.155403,-0.086392,0.084075,-91730.921305,-357194.706055,-2093.926412,170833.519043,-4332.341741,4408.629232,91839.593750
1424,0,-0.138216,-0.098417,0.077074,-114159.960327,-457754.775781,-36459.638647,277808.432812,-5806.714150,11781.930890,713089.625000
1425,0,-0.146466,-0.113657,0.070160,-49445.550537,-227477.331682,31705.321631,128253.176025,6358.090702,-178.231960,440810.218750
1426,0,-0.160576,-0.091921,0.070129,-62560.889759,-251370.156161,18469.609730,109682.258390,-3056.642023,3554.709388,617770.125000
1427,0,-0.141942,-0.102961,0.092479,-77161.391390,-328951.561719,-590.426758,247517.148958,-1626.861898,25607.137329,713089.625000
1428,0,-0.104500,0.147949,0.093386,-85620.159302,-492843.385254,1238.335396,-257440.680664,-3038.410809,-16619.955765,801841.187500
1429,0,-0.094253,0.163685,0.094171,-232457.434082,-576279.161947,-7118.355667,-392541.945312,5079.966011,-25266.809464,1103747.000000
1430,0,-0.111605,0.148339,0.077058,-97142.009176,-334977.064453,16672.155151,-188460.360840,9740.087125,-13562.528956,332843.406250
1431,0,-0.123564,0.138682,0.089551,-94891.733297,-198256.623617,31157.532674,-118953.970057,3335.219381,-19392.899348,332843.406250
1432,0,0.104971,0.143024,0.084435,-120427.222028,-423436.061942,-23389.937856,212843.168387,9735.363222,-22920.216304,683818.500000
1433,0,0.094867,0.165109,0.092347,-189947.824751,-336336.913352,-2694.285866,334201.730824,-3041.078869,-18344.641668,469510.343750
1434,0,0.087024,0.146146,0.077110,-42493.257172,-367770.569010,-9957.400614,283415.282552,15497.784836,-33840.449768,645344.312500
1435,0,0.081778,0.156321,0.092767,-80909.913537,-434557.587534,-8649.189491,327100.025240,17383.557373,-32385.808899,800060.125000
1436,0,-0.139127,0.098800,0.035612,-122954.461914,-429535.420247,-39078.344788,-263124.082357,10857.125663,13707.993748,696807.625000
1437,0,-0.143237,0.103357,0.014405,-81036.226990,-296811.971161,6408.412659,-206254.140640,-3231.641941,13195.527672,463637.687500
1438,0,0.107546,0.125952,0.012750,-314373.811945,-518221.506592,-85343.993120,248273.441406,4457.292025,11612.845836,558071.687500
1439,0,-0.129484,0.109790,0.029640,-125204.969021,-262848.295573,17287.941189,-307134.333333,8016.037422,14922.666870,749442.187500
1440,0,-0.115802,0.124568,0.035042,-241320.985596,-350959.480713,-36476.983387,-215750.017090,2338.492145,13796.248192,611717.000000
1441,0,-0.140573,0.120445,0.041835,-110375.115424,-198698.832682,19292.114312,-172815.843750,283.733056,6001.591973,377040.562500
1442,0,-0.131678,0.106799,0.050228,-166489.976562,-351999.162667,-24826.314226,-320775.616629,1205.770129,-420.381809,377040.562500
1443,0,-0.101285,0.101093,0.032691,-78814.230371,-312578.541406,-16313.099097,-65866.267969,2199.446048,-21630.827113,323302.093750
1444,0,0.058078,-0.162962,0.082729,78231.093898,-224515.199232,10866.560425,60452.717420,22192.481341,-554.504190,302786.406250
1445,0,0.045593,-0.181582,0.092222,-151975.175635,-136427.000623,-49205.355750,99762.961444,3938.070312,20045.059448,331732.843750
1446,0,0.041717,-0.164467,0.077074,118377.735400,-26248.233093,72830.251685,186473.152972,-19316.881982,3143.120517,331732.843750
1447,0,0.073535,-0.163748,0.091853,-137530.275293,-653829.717578,-109735.096802,-298669.587305,45667.761230,-12415.672217,1582902.125000
1448,0,0.181150,-0.035307,0.086085,-41931.983817,-243018.803013,1683.032231,-156873.727679,-9873.165027,1867.905208,320798.562500
1449,0,0.175918,-0.059939,0.097286,-80337.167025,-162511.649858,1850.547696,-111024.867271,-10572.121737,4722.661414,485312.093750
1450,0,0.161380,-0.044007,0.086979,-97803.701604,-468568.191707,-39223.881273,-222619.019231,-14257.498695,-18082.502122,485312.093750
1451,0,0.174339,-0.035891,0.063056,-47763.672827,-344772.568750,-18950.932764,-181796.825391,-1637.220557,-3650.056833,404810.562500
1452,0,0.178624,-0.050123,0.077027,-95179.650146,-229719.062695,-165.470966,-139971.436328,-5760.364502,-3611.946863,244682.234375
1453,0,0.047020,0.180041,0.056225,-433998.238281,-311331.209167,30200.060150,56888.779226,6542.008591,6691.571655,709159.437500
1454,0,0.039241,0.164626,0.071145,-32004.845052,-269019.510645,64371.415869,-115036.186230,-3353.634450,-30734.832243,1149058.000000
1455,0,0.038724,0.165676,0.049344,22372.801270,-216233.032145,75416.057943,-150781.521851,3384.737368,7301.914866,884049.687500
1456,0,0.062552,0.174922,0.049480,-345231.048695,-362526.584339,-1587.347468,178932.335316,7556.307992,-9849.225691,779403.812500
1457,0,0.071102,0.171028,0.070040,-304096.665527,-390200.526855,-20902.976807,267829.727783,-4530.467926,-20299.613773,666359.875000
1458,0,0.046926,0.179567,0.034990,-444254.223214,-333645.381557,10069.575963,84745.644601,-5169.141318,10751.952593,379548.000000
1459,0,0.018671,-0.002436,0.013286,211533.662891,-782725.540625,-60266.498486,5516.989893,-843.943054,11999.621071,1014842.937500
1460,0,0.013980,0.011296,0.029508,207749.916548,-716172.139205,-21934.729648,52302.655984,18648.570668,-9417.947107,1007563.062500
1461,0,-0.003454,-0.011165,0.009886,236234.183949,-790542.068182,-46719.193648,-752.262462,5114.409524,18401.307568,873428.875000
1462,0,0.000575,0.008202,0.007420,186491.914551,-836753.824219,-93148.099304,6227.827591,3079.328705,-13296.375954,907561.625000
1463,0,-0.017147,0.005151,0.021802,239963.766510,-761114.500000,-40765.163086,-30088.289185,-12962.068104,-7840.276406,907561.625000
1464,0,0.004348,-0.010496,0.028025,212395.817139,-781980.364258,-32920.608902,-3182.688072,6527.699394,13644.607344,907561.625000
1465,0,-0.103256,0.133120,0.007873,-238735.004985,-619458.818359,-62063.502889,-257314.616781,18000.944407,26945.304026,859888.125000
1466,0,-0.118158,0.111564,0.013501,-189970.840465,-326014.982999,-1544.993519,-306636.125444,6984.650912,6607.267955,749442.187500
1467,0,-0.122390,0.128265,0.013905,-180188.896810,-224969.431051,17233.627650,-199894.921712,6103.083059,6485.673508,139723.343750
1468,0,-0.131611,0.130684,0.028035,-122165.810303,-167442.125195,35387.621466,-147244.598242,-9662.942563,14062.232861,157987.218750
1469,0,0.087024,-0.146146,0.035072,183490.585791,-387928.612109,54933.718323,-265796.472656,-13402.045654,20066.077881,748230.562500
1470,0,0.090023,-0.162589,0.048998,-97959.064719,-514541.349432,-58350.191673,-408561.801136,-9067.657643,9473.713973,783047.625000
1471,0,0.100439,-0.136882,0.042707,-60862.000872,-640824.665737,-67609.078779,-270336.839844,-3477.447003,-2062.098333,716336.937500
1472,0,0.086685,-0.146369,0.056554,128617.860218,-427559.253906,37666.344471,-281069.117188,-1892.593794,-6031.821247,716336.937500
1473,0,-0.169075,0.017685,0.091740,141423.580985,-424422.661830,-5871.768319,-167323.711548,-3383.740819,21506.327757,611806.625000
1474,0,-0.170478,0.035188,0.093805,-67530.448568,-382983.305556,-16630.997518,-231003.890625,14089.420329,19432.896593,550762.250000
1475,0,-0.167306,0.027918,0.070061,9162.709961,-461235.256510,-41077.079386,-219989.121094,2722.817612,10426.752813,609902.125000
1476,0,-0.185791,0.011175,0.092217,58412.713009,-415381.859375,-20900.655318,-84877.142173,4029.224021,1424.782575,452064.156250
1477,0,-0.185559,0.030768,0.095811,7264.651807,-294548.078906,3822.771912,-175612.242188,5803.932678,-2074.283031,573746.000000
1478,0,-0.182967,0.032099,0.077048,-5863.398864,-326229.268490,-4010.509033,-160423.552083,4244.685773,178.055802,380956.218750
1479,0,-0.177664,-0.011536,0.084075,101668.771595,-410012.453125,-10654.428688,101480.191177,-5752.004370,-3543.655948,640062.875000
1480,0,-0.001572,0.021923,0.014887,249956.809814,-930808.109375,-55357.949121,14427.793799,-6325.703525,-47381.166406,960386.562500
1481,0,0.060692,0.174536,0.022404,-407179.199219,-420057.256944,-31600.974264,152311.320204,8033.414951,57945.275526,822423.187500
1482,0,0.073188,0.170855,0.035026,-307586.317708,-388762.778809,-25141.285082,289186.634847,1410.767927,10792.907375,546184.812500
1483,0,0.051000,0.180864,0.011151,-563817.458984,-463329.789714,-5576.898158,69223.324666,-19529.222672,51829.010531,535729.437500
1484,0,0.036517,0.166023,0.027994,-24359.477865,-262904.240133,39785.088704,-130588.965425,24694.617985,39019.299487,648633.187500
1485,0,0.050210,0.162274,0.015577,-19402.168324,-258702.032005,41818.660761,45480.699396,8460.964217,33508.467951,693216.625000
1486,0,0.068087,0.155411,0.028020,687.646136,-271162.362026,11105.726528,194678.802455,-13709.238569,36463.400501,379548.000000
1487,0,0.073535,0.163748,0.013240,-223060.308008,-488383.364844,-27427.090674,322495.089844,-12146.138098,29717.382452,827978.312500
1488,0,0.161984,0.041431,0.086964,-77942.815430,-490273.461589,-34976.278595,226460.838542,-11949.855123,24330.804759,717317.500000
1489,0,0.174204,0.047081,0.072731,-74491.098724,-282811.079651,-5044.486797,161852.652344,-2617.867455,3930.451786,717317.500000
1490,0,0.158667,0.060764,0.073545,-138310.000075,-454168.501803,-44761.026705,205965.223107,-3040.542847,-4376.849155,904276.625000
1491,0,0.159135,0.058185,0.094156,-137931.411621,-445883.535807,-25356.732505,215342.681315,-20822.252319,6704.931245,862059.187500
1492,0,0.178510,0.025771,0.092887,8692.651713,-298576.860026,-5145.240138,192777.485677,-3977.557119,6964.671780,417344.468750
1493,0,0.167756,0.028004,0.077110,55614.630420,-383667.978906,-20921.760138,209418.458594,-2756.969225,26542.181324,682690.125000
1494,0,-0.029655,0.167570,0.070021,-151747.230262,-338898.977764,37122.734544,227110.773757,14965.373638,-37331.006465,919165.750000
1495,0,-0.013854,0.170275,0.091969,-179532.315430,-760197.003551,-26546.321023,246772.214799,19030.700229,-75178.842241,1262018.000000
1496,0,-0.024226,0.183270,0.094894,-401857.115017,-565856.577257,31377.051812,199074.863715,-2754.655992,-55145.321181,836094.687500
1497,0,-0.039492,0.181427,0.092468,-570697.813702,-465827.200421,-1713.254836,38475.761944,-9619.943956,-59280.101985,823310.812500
1498,0,-0.057196,0.168556,0.084075,-145923.810096,-340018.579177,19526.767034,-91660.266489,-7811.612840,-54833.340021,532581.812500
1499,0,-0.046645,0.179507,0.077027,-474212.427912,-314588.515270,22614.161388,-57379.233398,-1237.298495,-25512.764424,805657.062500
1500,0,0.131531,-0.109415,0.088679,-93417.177763,-242771.890249,5945.958567,-259799.322416,-1390.043410,6599.864885,579473.750000
1501,0,0.154221,-0.102772,0.091360,-20444.619892,-216892.816632,8952.392461,-85876.966140,-6256.645221,13610.047276,203070.578125
1502,0,0.150201,-0.109486,0.077067,-25152.371392,-211001.320312,23072.414780,-115148.524469,-4621.608986,2786.490259,579473.750000
1503,0,0.145090,-0.088360,0.070686,-150848.063434,-440082.201923,-41615.705491,-223265.917819,1942.448675,6597.111213,258604.234375
1504,0,0.160262,-0.093870,0.077083,-49701.382812,-193481.983856,22889.724536,-75519.847656,1009.493458,4339.938359,258604.234375
1505,0,0.123737,0.000000,0.073565,689350.890625,6074.208678,42498.730499,4227.789407,15375.979102,779.225116,693016.250000
1506,0,-0.142341,0.121986,0.093390,-96495.621887,-156425.315389,13087.648844,-151816.469157,7394.006368,-20688.724294,113893.539062
1507,0,-0.132113,0.130729,0.077067,-139089.499290,-160965.030540,24755.823975,-136269.699102,6485.815014,-7515.149087,332843.406250
1508,0,-0.127039,0.107624,0.093423,-94172.906785,-268958.060246,-2578.777644,-313139.894832,-13007.383240,-28617.060303,516562.750000
1509,0,-0.129064,0.112943,0.069687,-121599.215132,-217599.450462,14604.488326,-268221.000710,1215.745594,-7175.778925,358036.093750
1510,0,-0.116789,0.127759,0.091607,-243661.384626,-377732.611049,-22537.129163,-180778.842773,8236.084954,-7767.905814,737785.562500
1511,0,-0.097983,0.138996,0.080607,-122197.132353,-605266.341452,-57856.849818,-289150.681985,-18512.006143,-31645.677433,737785.562500
1512,0,-0.115841,0.124142,0.070219,-233998.796180,-342324.436899,-43637.600736,-209734.132512,3998.938092,-13062.898315,332843.406250
1513,0,-0.126694,-0.130467,0.093204,-144952.067976,-280680.309291,8059.599234,172024.798270,11462.624518,-4097.941271,477377.750000
1514,0,-0.117820,-0.112801,0.094828,-172834.066858,-215125.762500,17027.438770,207378.803027,6147.718506,11999.991187,403076.593750
1515,0,-0.128108,-0.112262,0.077079,-116155.405249,-270124.388672,28476.216260,293999.985156,3946.325150,5759.638855,713089.625000
1516,0,-0.115802,-0.124568,0.077079,-212162.876221,-417910.708008,-27230.566210,183414.228800,11294.164993,7015.874878,508655.500000
1517,0,-0.111605,-0.148339,0.070073,-118113.474154,-528413.446875,-27808.988477,231474.603027,800.570427,2771.078990,690735.750000
1518,0,-0.131611,-0.130684,0.070073,-153540.521143,-259487.494141,20128.242068,176460.152148,11271.796031,9307.683121,235854.078125
1519,0,0.056037,0.162697,0.093834,-53518.677284,-314282.899602,43848.514695,103328.225060,7013.879676,-41987.820913,710492.625000
1520,0,0.067979,0.155423,0.077644,54579.914355,-292037.108984,33118.853284,171790.952539,22460.006738,-34502.717010,800060.125000
1521,0,-0.001499,0.043861,0.013325,37324.984592,-1857388.548611,-180487.351264,3924.404921,-11970.467285,-105551.208116,1834585.875000
1522,0,0.089386,0.162518,0.070103,-127497.369244,-345486.481971,-1027.674058,307835.186298,-2197.179580,-18866.489967,645344.312500
1523,0,0.071798,0.173366,0.094580,-370618.903158,-529937.785807,-26359.765320,334899.835286,3706.420970,-27122.308268,1037007.500000
1524,0,-0.008010,0.186750,0.091807,-308904.673410,-705400.414062,33677.820718,65287.814802,-794.764875,-65238.976314,595080.437500
1525,0,-0.023738,0.184280,0.073563,-386716.614183,-411961.767728,67183.249418,100634.425331,-4836.658907,-14858.599342,743272.437500
1526,0,-0.000294,0.186608,0.076384,-219289.145508,-531323.632812,78796.191170,11298.475464,9715.138077,-42182.813698,523465.406250
1527,0,0.013927,0.176928,0.083479,-176123.898577,-628817.853795,17495.869895,-122251.596959,-446.868702,-67482.697702,595080.437500
1528,0,-0.089942,0.144557,0.056091,-5843.765972,-434835.139423,-21642.829731,-265371.606971,-912.600746,-7773.779579,752973.812500
1529,0,-0.072378,0.153550,0.071429,61376.848520,-360632.407752,18439.429565,-197875.927960,-26624.172321,-28725.530104,595940.312500
1530,0,-0.105243,0.133565,0.053495,-230756.705125,-514966.679688,-101569.655109,-245550.148137,-4474.099619,-3199.188259,1065214.750000
1531,0,-0.000517,0.084543,0.072891,1144.562323,-1922845.962500,-32874.566113,6863.707922,-1330.762234,6316.138104,1887844.375000
1532,0,-0.000682,0.016196,0.022330,246863.917259,-855069.051136,-38154.311945,22573.101496,10188.455738,-33941.964550,907561.625000
1533,0,0.113471,0.126957,0.077079,-222012.383798,-300650.226144,-28933.219007,181047.281669,4998.836862,-3162.208452,675320.187500
1534,0,0.129079,0.114704,0.091285,-160046.087337,-205258.812124,3041.560115,287562.951022,6964.449284,-5290.863563,979322.625000
1535,0,0.133104,0.129308,0.070073,-115332.734173,-126760.375376,19147.425612,149728.654410,-5439.610445,-6064.241000,330152.875000
1536,0,0.127127,0.134827,0.092576,-133887.776101,-149836.544212,14180.969127,118004.280751,-8853.282368,-8419.326560,308991.125000
1537,0,0.140981,0.122979,0.090542,-62484.584147,-115556.328084,15332.693380,118383.343302,-5307.311778,-2147.334272,330152.875000
1538,0,0.147958,0.098934,0.084075,-69295.908231,-304512.220703,-12056.749420,159411.009501,-2519.532092,-14427.390981,387129.406250
1539,0,0.150255,0.108869,0.070073,-29114.076938,-174762.640048,17657.084584,107182.795166,572.491705,-7667.827845,330152.875000
1540,0,-0.000154,-0.152655,0.030476,-96557.031533,-1323211.435268,-157446.670663,16491.387041,13231.661069,-21357.644673,1517615.125000
1541,0,-0.005530,-0.177851,0.024958,34185.754191,-618913.427734,-47424.552694,-58791.884969,-1009.581197,-27792.221408,516938.281250
1542,0,-0.009033,-0.177758,0.042037,3177.514949,-589721.595553,-56712.212121,-108970.080360,1370.794701,-10938.766252,516938.281250
1543,0,0.184972,-0.026157,0.014709,22553.718424,-315090.373698,-6477.126628,-145841.966797,-301.861242,-382.330969,325061.343750
1544,0,0.167782,-0.028450,0.028160,13086.077942,-393947.780599,-35535.599691,-190916.612630,-3508.514357,17002.630024,502771.125000
1545,0,0.184254,-0.025473,0.042809,10288.701176,-300949.964062,-3834.476025,-124622.482292,-1019.303031,635.561980,309796.656250
1546,0,0.169780,-0.008182,0.028193,190518.938558,-332272.801432,10892.755229,-80643.023641,-14645.489415,4080.798213,440330.812500
1547,0,0.171812,-0.012359,0.011344,192473.769067,-351966.825000,-5975.372266,-114357.884082,-14209.922119,12905.358928,533888.000000
1548,0,0.172970,-0.046789,0.019147,-69588.143222,-294212.212358,-1782.517290,-158291.450639,9123.476223,5442.795475,502771.125000
1549,0,-0.028236,-0.184783,0.011563,-129930.684949,-392401.245898,-79098.704419,-131948.994531,-11312.709185,-44916.212988,288572.625000
1550,0,-0.017530,-0.185062,0.028396,-73162.265756,-330086.043387,-57272.806567,-126851.048689,-2413.724930,-22625.469029,300316.656250
1551,0,-0.039207,-0.180536,0.013897,-118399.238271,-139860.183818,-4095.464870,-148486.352539,-16022.006953,-6433.482544,464502.375000
1552,0,-0.046645,-0.179506,0.028066,-95269.419019,-77331.186951,-24101.229341,-80808.115527,-7915.117267,-15920.893628,279590.218750
1553,0,-0.013679,-0.171597,0.012018,8343.480025,-671061.948509,-24687.030407,-143642.942516,-20943.262562,-44805.606734,787658.062500
1554,0,-0.056347,-0.165676,0.018236,22632.216665,-133875.100952,22126.785620,-95336.536508,12710.025362,-11479.816988,411181.968750
1555,0,-0.111333,-0.125062,0.011906,-170040.041602,-501191.574479,-43066.583032,183162.501302,-6208.938086,-5199.821359,338345.031250
1556,0,-0.111326,-0.147762,0.027098,-87833.160482,-514597.016146,-17098.971029,246738.052604,-2039.740861,12237.662711,785594.250000
1557,0,-0.123550,-0.138698,0.015544,-128906.872070,-313864.880078,9831.032373,133091.555664,-16045.846702,4702.699720,338345.031250
1558,0,-0.140925,-0.122864,0.013642,-89192.439449,-198086.575623,17155.156514,156577.474121,-12854.030375,-10258.627800,314213.218750
1559,0,-0.131611,-0.130684,0.028035,-137698.020182,-244110.050426,19860.421509,163014.208984,-10680.071705,5420.272748,367552.125000
1560,0,-0.115802,-0.124568,0.035042,-189623.885951,-417975.524554,-29242.257377,192260.059361,-3330.791382,15751.468689,347628.406250
1561,0,-0.077893,0.168145,0.013447,-299788.020508,-593055.798645,-32162.929443,-346318.573591,-871.810237,32836.658430,869973.812500
1562,0,-0.096006,0.158945,0.034812,-203865.328472,-450770.956731,8488.633921,-351560.644832,-6177.284581,12337.256812,761957.937500
1563,0,-0.092337,0.158012,0.011212,-141758.815186,-494176.214193,-6990.576538,-362677.282552,2244.832787,13056.762962,942727.437500
1564,0,-0.057196,0.168556,0.021019,-211337.129084,-371435.202237,2301.859419,-110262.327060,459.002120,47892.399769,517745.093750
1565,0,-0.071882,0.171027,0.028066,-390669.580859,-491264.409180,-21109.797705,-273434.962256,15692.654083,24700.351324,761957.937500
1566,0,-0.010470,0.187437,0.009851,-326358.101918,-696052.014205,41057.780740,107271.042836,-12937.526545,50874.698364,822371.812500
1567,0,-0.025563,0.185769,0.012840,-451599.005900,-540733.811849,25837.065369,141808.008423,3525.970490,43123.409454,822371.812500
1568,0,-0.022020,0.184641,0.033308,-364303.340227,-369883.957589,72671.014893,106165.777518,912.976161,19277.216125,623253.125000
1569,0,-0.011363,0.170489,0.028319,-182004.457298,-759657.677557,-52497.629616,189410.294922,-2496.657648,55100.624068,681210.562500
1570,0,0.001289,0.185905,0.035031,-207970.058461,-550731.825284,71708.139205,12221.769420,-4034.041060,31459.686934,623253.125000
1571,0,0.006737,0.182324,0.013012,-213961.011828,-681600.010417,9250.771474,-75622.414754,-4662.499273,73051.862630,881586.062500
1572,0,-0.013321,0.170736,0.010742,-121510.947852,-780833.681934,-8319.721906,247618.189844,-36078.755005,71851.413550,822371.812500
1573,0,0.151502,-0.103266,0.012826,-41705.909615,-245458.796549,10860.257823,-125058.698588,2239.934809,-9675.737431,549205.687500
1574,0,0.162270,-0.093886,0.012766,-63715.567983,-169208.732900,15162.900045,-72969.524740,-225.521277,-932.298876,206752.531250
1575,0,0.145845,-0.086706,0.028020,-146724.439142,-450261.978693,-42518.133267,-227269.478693,1416.733127,-8332.450304,933761.125000
1576,0,0.140408,-0.121727,0.015161,-50732.023413,-151857.930464,17610.639049,-138765.854315,21154.110374,-4390.730756,284391.156250
1577,0,0.150255,-0.108869,0.035021,-40384.743042,-206036.946777,20870.377055,-114993.263702,3477.368485,524.036377,524885.250000
1578,0,0.160376,-0.093993,0.034925,-52471.263455,-186417.347955,14740.242432,-68952.583550,905.331153,253.407850,397598.875000
1579,0,0.134166,-0.103763,0.028025,-111714.261340,-357747.378906,-19200.570892,-273133.319336,2970.266533,-11215.509805,550450.500000
1580,0,0.081704,-0.167594,0.013278,-338525.621271,-703826.063920,-144615.573375,-544071.977273,-32658.372953,-19001.839455,1809193.750000
1581,0,0.068704,-0.171819,0.010181,-161454.493490,-643710.426704,-133861.677924,-147101.866984,-26297.224243,-29227.003140,796600.187500
1582,0,0.073188,-0.170855,0.028030,-289375.248372,-695042.101481,-204134.309082,-294992.032226,-22749.940760,-8978.106263,1809193.750000
1583,0,0.090038,-0.162651,0.028026,-130493.318810,-513470.527043,-56878.677111,-397662.326322,-3238.834088,11235.936588,537091.562500
1584,0,0.070277,-0.155084,0.013062,157546.829778,-410236.057627,16205.982760,-139205.824594,-30917.945275,18612.327909,796600.187500
1585,0,-0.162767,0.048608,0.015578,-104539.619751,-459747.021205,-20723.490618,-221316.254743,-15401.118853,-13210.033314,500324.937500
1586,0,-0.162625,0.050136,0.035072,-116022.951172,-493470.671274,-52283.902109,-219656.922175,-6137.685549,-9352.235197,594493.500000
1587,0,-0.167306,0.027863,0.028024,-23620.854181,-453752.188920,-42834.164284,-229486.849432,-844.374079,-28366.926027,500324.937500
1588,0,-0.178796,0.046843,0.010176,-99643.394463,-287308.953125,-8968.812012,-179943.601562,-10762.968295,-1710.858713,410854.593750
1589,0,-0.161179,0.032136,0.010937,-22317.399304,-457838.360938,-32927.027856,-258862.249219,-13554.339472,-47863.664663,500324.937500
1590,0,-0.174716,0.062209,0.013421,-68882.981135,-155012.029430,31616.344194,-95676.801136,-4532.078049,14617.689578,292452.250000
1591,0,-0.028040,0.167338,0.028020,-105622.690674,-298645.594416,50725.316168,277087.660950,-7746.752832,51116.079801,1214824.750000
1592,0,-0.040876,0.179028,0.012675,-485855.517045,-407610.499157,-369.545987,36693.175559,-3334.901007,30199.646379,760208.937500
1593,0,-0.047121,0.179838,0.028026,-483389.263849,-301289.374467,15627.047213,-47073.299583,2683.171924,26096.838445,784593.875000
1594,0,-0.048521,0.163015,0.035072,-41969.267822,-190672.890963,54058.989056,-23326.888564,5055.746594,30941.992483,627486.187500
1595,0,0.021519,0.165700,0.013166,-109161.370566,-593730.064740,4527.298828,-293205.021875,44162.085822,78249.049609,1160523.000000
1596,0,0.023158,0.188992,0.010805,-440982.911058,-572101.573317,20767.153025,-105527.082782,-13337.050119,68438.012691,858913.125000
1597,0,0.006640,0.168782,0.028040,-111590.710118,-819146.536058,-44420.149977,-64423.500329,-1925.286199,72193.673499,1012078.625000
1598,0,0.185753,-0.006173,0.056271,75451.143335,-362436.856250,-12440.838757,-55383.618561,1057.217163,-2609.094246,356607.312500
1599,0,0.170014,0.008702,0.056060,200310.543682,-326424.923678,12492.760630,66055.950571,755.058656,1442.122035,628631.250000
1600,0,0.170014,-0.008702,0.049033,197687.256999,-321562.956380,11028.073883,-62598.081887,-8794.390167,321.678950,406528.468750
1601,0,0.171288,-0.008414,0.077441,158366.584022,-345179.311298,-1216.382879,-68134.670016,3633.142534,-4000.805776,539691.375000
1602,0,0.185564,0.004354,0.049054,74384.541309,-365631.617188,-12536.968396,43504.363202,-7955.099433,-3218.716177,488706.031250
1603,0,0.183243,-0.023664,0.070761,50842.757700,-316707.677885,-800.356995,-131317.338942,-2211.826663,1629.871942,539691.375000
1604,0,0.186366,0.003946,0.069570,82165.021991,-369719.235577,-11556.986126,17720.212290,-2652.548080,-1566.021844,464881.218750
1605,0,0.159466,-0.047089,0.030996,-93678.985529,-487499.965199,-47295.191897,-207397.737571,4999.635282,10455.022705,502771.125000
1606,0,0.172461,-0.068478,0.026991,-67482.777832,-176574.227116,19161.933605,-74009.498340,5328.696458,-7189.620539,143052.859375
1607,0,0.178624,-0.050123,0.034990,-62761.145730,-236012.538530,3719.044227,-133785.403054,-1530.669626,-4505.707523,502771.125000
1608,0,0.158997,-0.059937,0.049683,-123411.073655,-485277.675481,-56694.416990,-213309.638221,6474.692057,5428.187509,542622.000000
1609,0,0.161313,-0.057047,0.011226,-119591.675781,-403213.226918,-13765.319080,-195279.755771,20832.843928,-2770.812838,857409.875000
1610,0,0.156142,-0.072999,0.034845,-127517.306576,-403856.107552,-36506.134077,-186910.889193,5057.404956,-613.342662,550712.000000
1611,0,0.167154,-0.085693,0.093227,-44479.969489,-148902.969922,15343.932129,-57488.439879,-3909.160815,9681.885898,234242.078125
1612,0,-0.185418,-0.019733,0.035494,36036.286323,-392700.366587,-15892.241615,126692.887019,1335.794329,-305.809228,472023.781250
1613,0,-0.169930,-0.005365,0.028014,287980.948964,-356891.946023,20132.892435,41234.860762,13768.952315,7225.729747,601437.875000
1614,0,-0.179752,-0.011892,0.012262,128033.311317,-420451.170898,-17306.149436,124882.480164,4105.867621,12544.373151,507303.375000
1615,0,-0.185398,0.002325,0.035021,106966.928274,-422845.472656,-10253.990579,-29857.582784,5402.970580,2993.219254,472023.781250
1616,0,-0.184233,-0.014174,0.063078,38156.678397,-396938.610491,-18909.139448,116009.923410,4626.433545,2000.776040,581234.312500
1617,0,-0.182475,-0.031667,0.027678,-39242.481900,-286297.233665,-832.740035,150984.569602,-3710.893445,112.477622,361784.687500
1618,0,-0.188438,-0.027688,0.011770,-4711.417074,-308865.222005,-249.578735,145384.920247,-5154.092031,-3888.842887,507303.375000
1619,0,-0.185398,0.002325,0.056039,95803.309304,-430728.504261,-17490.900036,-12770.556641,1234.923231,4724.831682,581234.312500
1620,0,-0.169930,-0.005365,0.049033,227245.524935,-378259.843229,13315.786580,54980.250993,748.793076,1533.039119,581234.312500
1621,0,-0.186565,0.029294,0.012102,11121.856714,-321353.961198,-3183.193254,-168255.554688,-7082.971041,2177.419674,410854.593750
1622,0,-0.171564,0.013210,0.028684,168882.470270,-426148.112216,-3478.820135,-152764.077770,4462.660736,-10252.515625,728664.437500
1623,0,-0.172138,0.008766,0.013421,212815.229268,-424053.721354,-13216.276396,-75321.405904,7915.726471,-8419.215078,581959.937500
1624,0,-0.157347,-0.000144,0.012252,516790.586719,-201024.665015,55354.223511,2118.029596,37280.430525,727.517395,581959.937500
1625,0,-0.160072,0.078578,0.091793,-109355.183631,-380526.310096,-6083.515127,-182645.781626,7917.332942,-16828.739969,619766.062500
1626,0,-0.172343,0.068543,0.070103,-83348.003916,-235639.215407,14950.109093,-109118.107685,4435.823514,-6299.641786,590871.375000
1627,0,-0.159958,0.090974,0.078268,-80760.832723,-296855.388151,3631.259066,-143674.733398,204.514902,-16442.840934,270627.062500
1628,0,-0.155313,0.069346,0.076375,-145421.666903,-553632.294744,-56219.484042,-249507.839134,3690.344183,-7145.092421,624236.312500
1629,0,-0.162278,0.094235,0.094542,-25946.039551,-183782.133789,24719.339282,-89417.183887,13242.665338,-11256.598279,109085.046875
1630,0,-0.170803,0.059055,0.090394,-114869.746582,-278458.668945,634.275116,-139799.702555,13525.575541,-3570.986537,328900.718750
1631,0,-0.000003,-0.106342,0.031811,-2771.665877,-1702261.078125,-18475.075475,-2135.049956,-2505.989737,-6777.782590,1669527.000000
1632,0,-0.172343,0.068543,0.028066,-84142.993752,-225851.329901,18826.057262,-105327.423029,-4866.330974,-3109.187661,292452.250000
1633,0,-0.160180,0.077622,0.021019,-124293.520883,-421330.070312,-27416.505672,-207485.635667,-4644.291922,6709.060566,463637.687500
1634,0,-0.146976,0.083212,0.055625,-153783.849254,-532641.321023,-72460.810464,-288455.711293,3482.202398,-2361.187990,579602.750000
1635,0,-0.150119,0.109118,0.056009,-40974.060286,-225206.154069,24125.504655,-125620.095614,939.468892,-307.816812,377040.562500
1636,0,-0.153440,0.084613,0.039242,-125645.446917,-411698.368304,-30081.268415,-197677.573992,5667.051520,15423.535001,320364.468750
1637,0,-0.156737,0.067828,0.056043,-146826.391001,-538211.772236,-67637.390855,-233536.498197,1565.071930,-515.746330,561381.500000
1638,0,0.130653,-0.115249,0.012701,-124824.497825,-212169.021551,21791.382069,-237483.691761,14629.463235,-9490.469782,550450.500000
1639,0,0.133104,-0.129308,0.035021,-95221.200155,-194056.492594,28622.564311,-130963.647868,9311.979379,-5396.950182,550450.500000
1640,0,0.110038,0.133027,0.093832,-269191.649523,-452680.537760,-46054.709418,154061.883464,-2887.247911,-28979.555440,434211.875000
1641,0,0.069849,-0.155187,0.035072,188940.335938,-358495.641724,32995.351194,-92965.903418,-14762.101575,24107.712791,391062.375000
1642,0,0.098061,-0.150138,0.016140,-13793.691345,-499759.073242,-5963.933350,-271061.323242,-3678.331924,14986.070801,852346.937500
1643,0,0.077087,-0.146606,0.092614,200758.721680,-372273.334961,29577.061117,-176946.290853,34923.817780,6638.101074,403562.656250
1644,0,0.069849,-0.155187,0.077110,179909.246338,-415957.406090,24750.360764,-73154.198242,34207.606491,-24246.662964,529649.625000
1645,0,0.095123,-0.161320,0.095305,-77626.675581,-436061.623580,5039.667161,-394499.332386,-4456.699987,-11892.339844,819849.437500
1646,0,0.089386,-0.162518,0.070103,-86152.688895,-546836.414062,-58948.143973,-411895.511719,14437.446311,673.766039,956108.125000
1647,0,0.004107,-0.128224,0.007077,2785.484100,-1636830.802083,609.757019,9839.749483,-584.587652,-20329.627279,1640073.500000
1648,0,-0.002573,-0.137698,0.012677,-21427.864057,-1631094.723214,-34633.024554,545.074853,-12713.992061,-42289.553327,1490688.750000
1649,0,0.092194,-0.146125,0.092904,137357.047852,-477635.138672,20450.122925,-279041.383789,21567.504921,8672.103107,813806.625000
1650,0,0.087024,-0.146146,0.077110,209403.229403,-411842.951705,58079.803567,-250086.877131,4025.353610,187.504972,830505.250000
1651,0,0.098068,-0.138874,0.066542,-49319.765686,-579535.095052,-45663.951823,-254419.635417,7674.005070,-773.832163,716336.937500
1652,0,0.113471,-0.126957,0.056060,-187518.766958,-398548.817007,-34365.360389,-175740.591496,-65.048685,4580.269855,674044.750000
1653,0,0.111797,-0.148496,0.055219,-71536.200765,-356997.227214,1087.988545,-183030.937500,-4883.795928,-874.994219,516442.656250
1654,0,0.104962,-0.143509,0.084075,-40089.669708,-479508.696094,-7499.762882,-216086.321680,6490.186489,-2369.643746,583546.250000
1655,0,0.020405,-0.172473,0.055529,-25077.198690,-388058.018975,-35720.370700,197276.616536,-2156.095916,1919.567990,478363.625000
1656,0,0.019847,-0.167919,0.035670,31932.590780,-549875.830404,-22835.748851,202003.253906,21762.960052,-23468.536120,516938.281250
1657,0,0.007164,-0.188543,0.035258,-33582.691162,-449340.758681,-70698.603271,88912.790717,2250.492733,-20357.179186,516938.281250
1658,0,0.000100,-0.179139,0.056276,-25291.489380,-549797.550781,-103395.705709,-17966.697327,2165.115824,-9722.853750,478363.625000
1659,0,0.049203,-0.178993,0.049074,-136059.028992,-191911.842631,-68737.537384,93658.830607,3247.451024,4926.190450,118037.664062
1660,0,0.041857,-0.164453,0.034933,94900.880258,-61614.578947,64147.977990,163796.687247,5944.559758,-467.273738,565499.937500
1661,0,0.042005,-0.164326,0.056050,117515.164016,-36761.977609,89441.410907,162338.704309,-8041.790426,-2263.376080,555936.000000
1662,0,0.027621,-0.183528,0.028035,-122826.682861,-253638.580654,-43779.880580,156578.845145,10391.655088,-19134.004543,542091.625000
1663,0,0.000475,-0.161517,0.075341,-16691.471875,-933618.581250,-89111.701508,32957.295508,5306.812415,40625.819153,852558.062500
1664,0,0.001407,-0.161714,0.053682,-22309.777144,-960627.718750,-105524.008612,13668.088423,3207.792536,2580.710827,865854.750000
1665,0,-0.158816,-0.078557,0.019077,-111770.946742,-400318.601562,-21588.778480,198011.238979,3113.702323,-9587.034042,300822.187500
1666,0,-0.141051,-0.095200,0.033153,-128108.653874,-475396.889062,-35877.122829,284716.188021,-68.611902,-15285.186194,631368.687500
1667,0,0.021486,-0.168244,0.077069,21109.298315,-394383.704102,2816.593750,252658.671875,-34900.994983,212.257593,805208.875000
1668,0,0.073188,-0.170855,0.070067,-257207.442949,-666906.039168,-202299.933860,-270616.029229,27487.112696,19053.933372,1705473.000000
1669,0,0.113471,-0.126957,0.035042,-176056.543262,-385382.040625,-25243.560402,-179107.277409,2747.783181,-99.394478,477340.562500
1670,0,0.118396,-0.143253,0.029558,-78576.747671,-309197.659856,15866.024869,-156460.721004,7404.041446,1083.925401,516442.656250
1671,0,-0.149336,-0.080025,0.067457,-162481.284579,-529141.499290,-56372.928600,260477.593750,-4802.864426,7178.105802,563933.312500
1672,0,-0.147228,-0.081053,0.046422,-157900.043102,-559856.666193,-63789.124157,281689.234375,-6896.125211,-3822.416465,1104341.750000
1673,0,-0.139965,-0.096861,0.056091,-124592.002441,-458921.207031,-31869.093791,281935.981120,1257.901778,-535.942886,601847.187500
1674,0,-0.160598,-0.091854,0.049248,-73335.718736,-271411.393029,16207.277461,117887.676157,277.865461,-4337.994062,320301.593750
1675,0,-0.156032,-0.069112,0.056426,-116220.866978,-509904.540179,-51721.635969,225034.944475,-1211.172884,465.743655,607265.250000
1676,0,-0.155775,-0.068295,0.077110,-148037.564236,-584601.210069,-52858.255046,261005.569010,3512.026622,-3115.178514,613954.125000
1677,0,0.145502,-0.000570,0.011847,568144.533381,-89570.760698,69265.639737,2526.391133,-31955.093783,6728.656609,614696.937500
1678,0,-0.171611,-0.068956,0.070107,-79857.316064,-258744.217698,10400.778733,126986.309857,64.676525,922.400085,613954.125000
1679,0,-0.072191,-0.153501,0.031833,213850.957595,-306466.883714,51249.983070,35985.812124,26420.526447,16784.177004,658151.812500
1680,0,-0.050063,-0.163652,0.034767,67674.615704,-27054.301063,57059.195838,-117131.421199,-11627.442599,5041.820181,281283.406250
1681,0,-0.071130,-0.171717,0.028030,-123066.737571,-486958.737216,-135434.093783,30431.595703,12024.653060,-2806.302335,279590.218750
1682,0,-0.062973,-0.156794,0.045232,228500.637251,-117946.992745,85721.474310,-126127.385476,-1149.623713,7783.308283,658151.812500
1683,0,-0.071211,-0.171765,0.048943,-105736.262957,-538711.261858,-144508.089137,77952.762347,-4849.340137,737.453666,196191.703125
1684,0,-0.046465,-0.178635,0.049042,-84879.838562,-86709.809977,-20147.534541,-110550.690592,-3550.537168,-8189.909292,191715.687500
1685,0,0.144297,0.000083,0.071978,645977.351562,-44808.056866,107810.041797,4639.811252,33318.790796,1324.858876,656450.937500
1686,0,-0.049654,-0.162886,0.056283,70497.557271,5125.311808,71524.844157,-125406.960470,-5070.728878,-5547.222574,196191.703125
1687,0,0.101985,-0.102038,0.052577,-133693.089160,-348110.629688,-11030.150586,-13166.309375,6891.856715,-1020.879810,380295.375000
1688,0,0.101985,-0.102038,0.073595,-121468.545117,-350485.215625,-4271.180615,-16833.270703,6461.644843,-14807.391107,520147.343750
1689,0,-0.078825,-0.150865,0.056091,187996.089252,-386290.648060,45551.344464,126369.731119,-8269.536443,-435.129319,205230.750000
1690,0,-0.060928,-0.158410,0.066891,180248.958740,-121811.026278,66909.259277,-85288.909624,-10100.918751,-2168.156787,205230.750000
1691,0,-0.048521,-0.163015,0.077110,74446.151012,31956.335982,83496.151989,-140342.601207,9576.781006,2103.109163,586726.437500
1692,0,-0.070886,-0.171634,0.069947,-121024.528737,-432152.156006,-123796.111572,22445.441264,-7785.716274,6828.050883,1237832.375000
1693,0,-0.046760,-0.178802,0.070032,-110708.422933,-114897.141886,-34755.712560,-101064.434224,6313.726603,2919.144761,140023.421875
1694,0,-0.080685,-0.148636,0.077252,230312.947388,-337791.599521,68261.882879,121345.463068,-13887.681197,-2854.326943,676363.812500
1695,0,-0.063959,-0.164873,0.085834,5877.843018,-234610.689069,-22366.033042,-34030.979911,-5237.348737,16467.337742,298914.500000
1696,0,-0.048010,-0.178589,0.088077,-134788.508789,-138377.328463,-34442.831519,-83307.321289,12673.076699,23509.622306,140023.421875
1697,0,-0.029869,-0.177386,0.091407,-59057.022070,-251051.120148,-14167.911948,-162368.723828,20906.425459,6426.739644,290292.750000
1698,0,-0.023716,-0.184074,0.072056,-69800.299142,-319747.040179,-74978.729736,-121370.182757,5416.315698,14640.749683,290292.750000
1699,0,-0.030379,-0.166744,0.091280,47691.823886,-86545.980097,49370.688976,-191366.404474,43149.175293,6814.992587,256868.062500
1700,0,0.185794,-0.005388,0.034156,77372.273641,-367960.219792,-7093.723950,-14310.532670,-1509.646802,-1442.064946,488706.031250
1701,0,-0.029655,-0.167570,0.077110,-493.221879,-235963.624112,20271.677335,-216973.894886,37179.893155,20967.911670,256868.062500
1702,0,0.185483,-0.004543,0.013731,103324.690561,-381996.783654,-16731.736920,-42270.859225,-1126.127065,-1626.906016,440330.812500
1703,0,0.187330,0.019568,0.011334,45740.468473,-345271.137074,-8319.319891,107047.627841,4909.558616,561.157571,485164.218750
1704,0,0.171239,0.009860,0.013033,205705.246504,-345106.781250,-2578.215751,68771.539124,-3444.329511,-7006.268040,770318.562500
1705,0,0.163353,0.050659,0.048885,-105159.801082,-414039.628606,-45062.296922,188667.423377,-5.163734,-259.365306,289385.343750
1706,0,0.155430,0.067891,0.049043,-154224.164795,-479468.374349,-60332.793671,213487.212402,2564.160383,1324.819291,904276.625000
1707,0,-0.167314,-0.028682,0.029787,22618.121284,-426786.111779,-33557.016019,198459.514423,6332.161031,9420.203502,466605.343750
1708,0,0.158819,0.046925,0.012544,-101365.928223,-491675.491211,-35160.716400,252557.024414,26802.102478,-16122.956207,615951.750000
1709,0,0.160575,0.054466,0.027970,-127999.117079,-468314.079861,-44950.485184,215138.642795,-994.519379,480.669947,835730.250000
1710,0,0.176100,0.069036,0.011513,-83504.060655,-165534.951931,11008.376678,79553.092719,6520.739471,11127.452881,156045.875000
1711,0,0.178283,0.050391,0.027476,-83136.460554,-216602.887974,5164.760507,142956.324219,1264.362322,-450.863050,263343.375000
1712,0,0.171238,0.035072,0.018840,-36772.605854,-361066.454327,-17266.975011,202664.185697,6916.205811,-16497.327984,373481.406250
1713,0,-0.126167,-0.107488,0.011474,-73502.684182,-266653.115986,19815.384174,281217.260216,1737.497408,-26030.472254,662310.812500
1714,0,-0.145939,-0.114973,0.028035,-55668.487300,-210017.401646,26290.944770,126544.615095,-7049.528251,-9553.497034,367552.125000
1715,0,-0.128108,-0.112262,0.035042,-109425.855276,-234738.866477,28603.694968,263969.532670,-7831.471375,6304.883420,631368.687500
1716,0,-0.001235,-0.147281,0.071795,-128708.408070,-1563666.676136,-197088.553156,-3806.934615,4638.822113,48547.277621,1564185.125000
1717,0,-0.000282,-0.147247,0.089709,-74287.167458,-1426980.420455,-112949.395619,5186.694236,4738.505520,55754.161088,976483.312500
1718,0,0.000610,-0.177985,0.077523,-27150.601416,-582735.558854,-80358.459733,-15477.615104,1323.111009,21741.231222,478363.625000
1719,0,-0.015019,-0.169856,0.091856,9447.701698,-579522.268052,-2693.823200,-200400.661809,41319.918505,20400.070594,1079992.625000
1720,0,-0.166252,-0.077161,0.093427,-99320.877368,-291467.352344,5351.821266,157674.276447,8957.853473,12773.267187,613954.125000
1721,0,-0.185398,0.002325,0.077058,88348.243921,-426710.795312,-11493.814316,-28028.570752,-8515.762241,1699.666614,479132.593750
1722,0,0.144266,0.000037,0.052577,618282.953125,-71397.012745,110173.396839,1274.305649,3885.826557,4203.417467,700829.000000
1723,0,0.123737,0.000000,0.052547,704447.403125,4586.576987,54173.017480,4763.354245,2242.292153,566.268740,699333.875000
1724,0,0.167756,0.028004,0.056091,37905.042902,-381030.399148,-28375.266957,194347.678977,7730.879022,9357.532286,451494.093750
1725,0,0.000255,-0.100248,0.073127,-1973.151423,-1703982.625000,-10605.947388,224.015317,-344.478190,-6429.761610,1727510.125000
1726,0,0.004259,0.020593,0.091337,277866.019832,-861002.792067,-45796.178974,-7920.491756,9621.699838,43130.950763,929295.812500
1727,0,-0.013043,0.010496,0.070062,248193.954241,-729987.886161,-4026.090203,-47757.490237,14887.655872,9265.477796,885891.250000
1728,0,-0.001519,-0.013440,0.083008,255737.346354,-722278.138021,-25444.433070,790.104129,17957.241577,-22041.429022,860334.437500
1729,0,-0.000000,0.031489,0.073565,194460.193576,-1252699.203125,-94442.187391,-886.484178,2130.131097,28831.666938,1880770.875000
1730,0,0.000746,0.042054,0.091533,60545.340820,-1811220.318750,-183798.864551,24094.473352,-5198.291797,96893.223486,1847359.250000
1731,0,0.015433,0.007040,0.088381,242754.901562,-748536.837500,-3141.465308,22535.942188,7801.495801,-12870.098975,910011.312500
1732,0,0.130654,0.111303,0.017214,-93020.355662,-163228.205017,18102.944906,258728.098307,-389.573922,12364.957862,307955.468750
1733,0,0.150201,0.109486,0.028026,-31072.574477,-190847.813547,22377.866596,113302.669565,3350.641697,10669.530086,208937.437500
1734,0,0.073000,0.073000,0.031528,93501.531461,-152126.261914,6052.312512,-24452.089478,-4541.000024,-5068.948236,281974.875000
1735,0,0.087495,0.087495,0.031528,102997.941895,-143273.220703,42628.790686,-36223.382642,-7574.265546,-15210.635742,690068.062500
1736,0,0.104962,0.143509,0.021019,-120267.725848,-413976.355957,-23607.853394,205710.156669,-11196.943368,21698.762137,282723.687500
1737,0,0.092194,0.146125,0.012189,-54278.340393,-474750.144531,-8508.072540,313222.805664,-22080.143440,41415.945831,717750.125000
1738,0,0.079953,0.148445,0.013629,-40062.250341,-437253.435937,-15048.799707,334663.584375,-46996.855127,44286.948438,717750.125000
1739,0,0.164368,0.086026,0.015987,-43359.182812,-185600.575158,10510.348558,82735.582116,979.066303,10485.952430,266389.375000
1740,0,0.036820,0.169275,0.011457,-238719.702271,-296951.327507,30766.123863,-127032.396729,21189.135750,1302.173096,625186.437500
1741,0,0.027621,0.183528,0.035021,-324462.387486,-425921.439872,35587.793108,-124121.624643,810.883937,34400.877441,485176.031250
1742,0,-0.148835,0.112193,0.030107,-51108.495739,-165764.824563,28676.965354,-97985.404952,-7616.636217,9668.971019,193086.406250
1743,0,-0.161543,0.091922,0.028030,-62187.052930,-200482.944141,23993.433667,-105920.150415,3648.260657,10189.723755,320364.468750
1744,0,-0.183071,-0.030642,0.070103,-40001.025091,-291203.137074,-3211.689664,153444.069247,4062.667818,743.353049,400457.625000
1745,0,-0.167314,-0.028682,0.071824,4452.602183,-435950.489583,-37437.437297,211633.312500,3218.569956,-15029.183184,400457.625000
1746,0,-0.167312,-0.028464,0.050365,6125.165383,-440293.197917,-39195.983496,202804.732292,-1462.296943,-2492.669226,751679.437500
1747,0,0.126940,0.001150,0.033498,698164.339844,8126.295502,55763.720993,3988.264036,-14882.411129,1337.509581,633997.187500
1748,0,0.144266,0.000037,0.031498,620823.426136,-67131.488237,100963.109553,3450.679366,-21761.043868,4091.598543,784988.187500
1749,0,-0.183071,-0.030642,0.049085,-24694.386703,-303477.006250,-8411.149976,148660.508203,734.441045,-29.336301,397094.656250
1750,0,-0.169930,-0.005365,0.070052,260467.671417,-372027.621094,20976.929159,48496.611369,-18582.903886,-3136.831103,581234.312500
1751,0,0.012556,-0.176235,0.019896,17481.735915,-619447.722238,-28055.931641,157279.968366,23453.638471,-34050.117205,773751.875000
1752,0,0.093415,0.161952,0.013507,-124876.829289,-380725.337740,15086.207548,340992.615385,-6663.043739,25835.829992,563783.812500
1753,0,0.086523,0.145942,0.028020,-10753.389868,-359133.818750,-5069.243628,300397.479687,-27359.251208,28253.896826,717750.125000
1754,0,-0.131111,0.130711,0.050170,-150014.356181,-163674.904460,19549.490941,-143917.941366,-1416.087789,1485.267406,111749.507812
1755,0,-0.176053,-0.059021,0.013337,-76877.828788,-221357.832546,17569.691884,126378.026925,-7840.545131,-6684.067926,214491.781250
1756,0,-0.172343,-0.068543,0.028066,-73185.850994,-237432.467984,15825.363942,106284.622370,-6256.986284,-1856.152155,603611.312500
1757,0,-0.178360,-0.049767,0.027580,-69740.555908,-225279.773328,8427.612555,131210.634521,-2114.659601,2611.849805,332703.187500
1758,0,-0.162901,-0.049714,0.034188,-122199.223842,-494083.319754,-55590.297684,220636.752790,-3522.301955,8232.792436,619603.750000
1759,0,-0.178708,-0.044926,0.009443,-70245.484375,-245708.133789,10405.027060,160561.686523,-8349.516029,-3254.601891,410407.875000
1760,0,0.029514,0.029514,0.052547,72134.162866,-298125.594531,48603.123926,41132.041895,-667.305320,8991.677679,843020.125000
1761,0,-0.161089,-0.092454,0.028787,-57839.952515,-247979.461589,17554.562050,109843.064453,-2133.329027,-8829.494237,307962.812500
1762,0,-0.156811,-0.070234,0.034601,-119592.893229,-504653.867839,-41789.413216,223512.822103,-10129.358805,2628.838272,603611.312500
1763,0,-0.171696,-0.069342,0.049724,-73874.027929,-246294.909979,12243.335277,119964.910156,-1483.229465,-1669.750993,294920.750000
1764,0,0.167756,0.028004,0.035072,24829.410610,-379930.796317,-30628.112231,183948.419643,692.348825,-10213.968699,640639.312500
1765,0,0.187940,0.009617,0.092009,100085.214881,-369089.603365,-15859.475648,61922.997493,4100.821371,-1057.259689,417344.468750
1766,0,0.169625,0.007789,0.077095,234102.965454,-303517.630859,22375.516246,61704.066742,13019.891265,9134.911112,439761.843750
1767,0,0.183900,0.024027,0.070103,25058.912870,-325201.042067,-10681.893503,145491.644531,-114.227116,1842.974240,311107.343750
1768,0,-0.065507,-0.000120,0.094658,763247.705078,-92423.510727,75979.330185,-6338.717644,38732.314992,17809.434048,752004.312500
1769,0,0.173476,0.011605,0.092561,188269.483154,-360389.710069,-6020.539402,128204.092122,16487.478312,10021.473314,682690.125000
1770,0,0.140206,0.098672,0.012196,-118695.436635,-388970.762044,-34641.700399,261192.326497,2378.109866,40175.529338,913840.750000
1771,0,0.134346,0.104439,0.035042,-128978.897694,-315480.211217,-22008.150321,275312.311105,-5114.862409,10532.843279,556762.000000
1772,0,0.155836,0.075839,0.011875,-136908.854687,-397631.173438,-15799.897803,206214.975391,3201.136255,14744.300269,596924.937500
1773,0,0.145904,0.086483,0.028024,-183196.864888,-462163.715199,-59402.537953,248614.696555,-1769.319892,17620.712811,556762.000000
1774,0,0.089178,0.161743,0.035246,-107704.586164,-343568.009766,4266.730811,298734.270089,-3413.047494,3019.548807,691992.312500
1775,0,-0.012458,-0.189434,0.095546,-46493.384721,-502191.353693,-38744.204065,-88517.907937,13893.892571,38936.361528,490142.906250
1776,0,0.009713,-0.172112,0.090705,-5278.679535,-706593.032292,-41655.694564,108483.453255,-12271.981808,35655.268860,747192.750000
1777,0,0.027621,-0.183528,0.070073,-103583.096835,-249420.834513,-52134.643962,171796.790365,-8851.648862,22102.612808,218160.281250
1778,0,0.030549,-0.175532,0.092077,-69798.706189,-261721.294678,-33345.384247,217419.797852,-20133.389567,17408.440872,331732.843750
1779,0,0.144734,0.078756,0.091924,-147806.178571,-440334.388393,-33340.796605,220035.577009,-8390.361625,-10910.096121,970305.750000
1780,0,0.173386,0.066981,0.077063,-79948.817231,-145895.220215,22907.036659,77735.113610,-8146.067059,-8648.913087,195331.125000
1781,0,0.145641,0.087472,0.070042,-156612.527203,-443278.469351,-59123.897095,229865.075120,3042.615265,-9465.410776,931688.437500
1782,0,0.172230,0.072850,0.093171,-77432.866135,-117537.173866,15191.255041,80326.701425,-8213.792729,-7687.474094,195331.125000
1783,0,0.164185,0.096086,0.094200,-32806.063461,-150164.791211,12109.313940,55498.557886,-7360.743387,-7596.613391,278497.031250
1784,0,0.160961,0.092333,0.077027,-47494.520241,-160327.994229,17691.774336,76606.723899,976.555101,-8715.242983,130894.390625
1785,0,0.100342,0.136881,0.062612,-194010.315430,-541870.606585,-105426.510921,259237.237863,5910.200566,-10456.653253,631445.437500
1786,0,0.123715,0.138686,0.064973,-75162.397517,-146793.663199,35255.548731,68798.707923,-3462.283583,1670.940872,321972.562500
1787,0,0.113471,0.126957,0.049033,-209729.777856,-309835.745443,-49575.167227,191481.090495,-4162.372132,2499.814876,523781.593750
1788,0,0.111289,0.148864,0.070067,-91036.707086,-279136.733941,11440.668301,159755.432292,-2222.331482,-5019.859701,714940.562500
1789,0,0.098567,0.138080,0.035471,-169598.853094,-529141.287642,-91974.109908,264066.632457,-15670.457753,11348.478912,957052.687500
1790,0,0.113471,0.126957,0.028014,-223435.866150,-318222.115885,-43395.679891,204983.658691,-5306.017588,-104.724938,334328.093750
1791,0,0.116606,0.144661,0.032402,-86614.130938,-207676.251901,24406.547530,101939.884347,-1124.838858,4593.578352,221667.562500
1792,0,-0.139958,0.096420,0.096480,-99507.372769,-432001.475852,-25788.783103,-274478.031605,4162.647637,-48877.309171,544845.687500
1793,0,-0.177811,0.049777,0.095053,-114460.496671,-214639.903853,2090.207176,-151158.580256,11874.641424,758.003485,303842.562500
1794,0,-0.076521,-0.157253,0.092838,54784.102686,-550087.371558,-42849.191431,181072.845801,-42035.624927,7843.187891,200762.281250
1795,0,-0.092457,-0.145816,0.093245,182948.603809,-490937.974609,20500.646240,230696.450000,-27687.050098,-17937.086743,705800.875000
1796,0,-0.093416,-0.160611,0.074487,-238823.890259,-789232.643229,-175965.908124,406405.851042,-17542.824601,24077.437382,833938.125000
1797,0,-0.096591,-0.158046,0.091221,-159252.803561,-643869.651442,-58346.454760,426853.816106,-809.563322,-24130.236346,833938.125000
1798,0,-0.044009,-0.044009,0.052547,5454.683398,-239732.100391,22545.546375,-138834.413281,-10468.043799,-5411.823636,834136.812500
1799,0,0.167756,-0.028004,0.077110,59734.181962,-386377.933239,-18391.737151,-196894.436790,-4668.055136,-20206.000323,539691.375000
1800,0,0.080302,0.168127,0.050003,-275885.621875,-384941.714062,-10016.358359,343220.372656,-218.669730,-5284.091028,691992.312500
1801,0,0.070317,0.155072,0.054880,39085.674367,-279608.742228,28540.436071,223543.373210,2112.563136,-3767.249545,565146.812500
1802,0,0.086735,0.146508,0.056022,-27189.224288,-334317.080966,-3210.281305,299348.830256,1244.577592,-7390.871047,691992.312500
1803,0,0.102560,0.154922,0.052777,-107391.340408,-278796.468471,19698.113334,202877.146484,-2141.619943,1865.751975,691992.312500
1804,0,0.178624,-0.050123,0.056009,-65918.392578,-233584.739879,4050.199097,-143981.818537,1736.866759,3067.981076,315918.468750
1805,0,0.013043,0.010496,0.049044,216478.986003,-714175.231771,-24258.273661,40652.721476,-986.860402,4622.629761,904828.687500
1806,0,0.062665,0.000255,0.033717,693136.256250,21748.269504,79130.817187,7687.627417,24144.217773,-3253.833069,669405.687500
1807,0,-0.001542,-0.146807,0.049927,-157483.767802,-1592567.631944,-227310.510091,4365.437541,511.512611,3438.594957,1090391.125000
1808,0,0.046926,-0.179567,0.070103,-134815.725739,-226001.653315,-76431.307261,68029.973736,6330.168655,15954.015427,103113.421875
1809,0,0.058504,0.058504,0.031528,100206.745557,-154103.647266,3509.145862,-23043.582715,-2474.654221,6491.706961,245613.062500
1810,0,0.186657,-0.024734,0.095210,22335.063342,-319874.750000,-9992.142725,-148470.318359,-6395.207021,-2678.665503,481733.531250
1811,0,-0.013716,-0.011780,0.035088,169586.243359,-743557.960938,-37789.395117,8337.788599,-9735.220813,12103.100848,873428.875000
1812,0,-0.027219,-0.027580,0.034593,9361.544271,-424926.851562,9042.210069,-57149.025825,-4332.517795,-278.247925,690804.875000
1813,0,0.004348,-0.010496,0.056050,221465.089062,-762765.893750,-16284.105007,-5317.300675,109.060581,-1749.956563,928778.875000
1814,0,-0.004348,0.010496,0.049044,225825.376149,-816221.930147,-21211.780340,-19055.974419,-250.685651,-13280.952482,641750.312500
1815,0,-0.016645,-0.001801,0.049044,231218.760653,-706534.203125,-13749.966178,-6219.879872,-1260.183553,-8682.046642,979662.125000
1816,0,-0.000160,0.050600,0.072525,-3531.156860,-1911399.625000,-168578.238556,9035.130119,-6444.306278,45326.349915,1887844.375000
1817,0,-0.001533,0.044301,0.055174,-7769.490326,-1801173.650568,-221031.596680,-2951.224354,-6333.061079,-16910.488066,1850896.500000
1818,0,-0.000000,0.062238,0.052547,753.610892,-1936228.175000,-120918.362109,1198.916824,-2796.106374,-723.122259,1888308.875000
1819,0,-0.002699,-0.118914,0.008767,328.905631,-1648553.339286,-12789.864223,5807.727351,74.583923,-5428.780291,1643341.250000
1820,0,0.004348,0.010496,0.070062,228980.221755,-772253.194712,-23926.830679,35485.263972,-4355.560481,14738.718186,971435.187500
1821,0,0.172452,-0.077798,0.012376,-58695.729670,-109308.419300,13718.975481,-58101.935414,4511.176727,-1911.708527,253057.562500
1822,0,0.040571,0.000092,0.033122,644903.041406,-247586.083691,135404.750488,6422.090198,46848.579639,-968.328918,546404.125000
1823,0,-0.001246,-0.079695,0.033334,-832.183698,-1705496.331250,-20663.806328,-1824.232285,-2225.747385,5271.730737,1685013.125000
1824,0,-0.000707,-0.082740,0.014208,2887.746161,-1664113.225000,-6985.355087,2092.039347,-3168.368651,3057.550314,1651823.000000
1825,0,0.000447,-0.058928,0.030762,-1194.875378,-1687282.250000,-75597.386438,-5396.889829,-1268.720225,25645.997974,1638808.125000
1826,0,-0.000876,-0.082020,0.053036,1641.709315,-1716695.268750,-25732.249658,-735.688412,240.762923,-4459.554529,1685705.375000
1827,0,0.101983,-0.103345,0.012442,-145418.185525,-286172.060957,1003.444025,-49873.168679,13671.616190,42258.808150,382583.531250
1828,0,0.111341,-0.128852,0.010216,-205971.882324,-482242.687695,-49777.822119,-111807.562891,24143.464352,3.060059,477944.218750
1829,0,0.101985,-0.102038,0.031558,-140421.510156,-347269.442969,-11446.444385,-15395.615234,5364.619417,13178.877328,494209.812500
1830,0,0.087909,-0.088793,0.014128,58942.813965,-271179.965712,34229.362196,96620.790690,-3137.299839,15776.149362,885621.562500
1831,0,0.114292,-0.001018,0.010598,645269.573864,-5586.465909,10857.784649,12872.544070,-8274.993852,-729.264992,614696.937500
1832,0,0.172770,-0.068519,0.054795,-85336.795673,-151754.506836,19084.019315,-68361.969296,-2880.708730,-1814.872709,282566.937500
1833,0,0.167756,-0.028004,0.049002,8063.427630,-415701.774554,-37204.116839,-194367.898996,-8903.881721,8932.048941,404810.562500
1834,0,-0.010037,0.171400,0.070168,-174191.310569,-643385.046875,-966.690119,128285.923340,3430.882452,-40747.362638,569580.875000
1835,0,0.006390,0.169446,0.069608,-128188.047175,-723895.342548,-18859.610910,-39287.869159,-3982.737608,-52241.979192,1129268.875000
1836,0,0.027621,0.183528,0.056039,-320105.980306,-433981.431152,54100.665853,-123829.495677,-3301.456141,-4792.008840,485176.031250
1837,0,0.029149,0.181933,0.081318,-395183.795573,-375456.390971,53267.576396,-77358.274292,-1589.273490,-25279.991547,525922.875000
1838,0,-0.106654,-0.131124,0.094597,-64200.709106,-609122.826986,-36834.728495,151054.845418,-8581.571360,2505.112488,444507.437500
1839,0,-0.103980,-0.104149,0.091062,-100654.845920,-356664.118273,-1766.586561,3138.090061,8992.760661,-44453.648465,1152500.500000
1840,0,0.115531,-0.149215,0.012053,-69132.097005,-326641.759115,13087.215712,-155633.218099,16206.850084,8519.276130,507250.968750
1841,0,-0.030131,-0.029273,0.073292,10770.096411,-410469.675781,-11100.115234,-75065.495703,10177.611204,-10242.125613,812233.875000
1842,0,-0.028367,-0.028999,0.053751,14721.738477,-398214.248437,5522.656934,-61162.629834,2817.057922,-9131.439429,754783.312500
1843,0,-0.004348,-0.010496,0.077068,214844.440430,-780114.764323,-19514.749095,3918.652293,9872.198509,-28108.583191,812233.875000
1844,0,-0.044009,-0.044009,0.073565,11469.643457,-244854.984961,16516.548682,-139573.128516,-5750.108327,2268.209171,455107.906250
1845,0,-0.031810,-0.031447,0.091520,10460.843445,-360168.948486,-9362.045788,-112887.769775,4155.956177,7755.487488,668273.562500
1846,0,0.134346,-0.104439,0.049033,-118736.475436,-325165.597957,-8130.102673,-269518.871394,1202.532094,6760.931295,624200.187500
1847,0,-0.031808,0.031447,0.070500,70506.268243,-361709.959635,27346.610338,18545.312307,13235.801634,5448.032661,450408.375000
1848,0,0.180405,0.045207,0.056035,-44506.935352,-221587.943359,7729.806097,134758.442969,5177.790483,-67.787062,156075.593750
1849,0,-0.041525,-0.000128,0.072033,669167.883681,-273836.156576,130556.696398,2365.189100,51532.273275,-7482.070093,895948.375000
1850,0,0.160961,0.092333,0.034990,-56527.221755,-201020.800454,17069.766824,93311.425959,7764.533264,2243.072011,208937.437500
1851,0,0.173514,0.066750,0.035030,-71262.641151,-145282.236892,17303.483901,69249.957210,-103.113846,1287.020907,128012.953125
1852,0,0.087495,-0.087495,0.052547,47539.432947,-225939.212109,46294.215430,114713.856250,4812.414545,-4623.318362,380295.375000
1853,0,-0.046303,-0.044788,0.012422,74546.385498,-303967.371826,9333.288879,-173723.281006,25510.607887,-1317.353512,506443.687500
1854,0,-0.056208,-0.056591,0.013587,63442.877658,-314844.402778,-6876.587972,-158496.287977,11599.390781,1099.924978,441365.562500
1855,0,-0.044009,-0.044009,0.031528,47320.596466,-258892.175781,22164.770679,-150746.160547,-10859.098865,-14694.919785,391646.750000
1856,0,-0.178724,-0.049885,0.049085,-61217.007272,-242555.848458,8576.928367,140150.585868,-998.791422,511.103735,294920.750000
1857,0,-0.162883,-0.050832,0.077458,-114310.678650,-468123.861816,-36655.930752,214911.565430,7965.325666,-7523.281940,935341.187500
1858,0,-0.103880,-0.103158,0.011534,-138611.270685,-333805.673762,13567.871493,89685.247603,-7378.451571,36893.837391,553836.750000
1859,0,-0.085553,-0.086434,0.014258,13426.511922,-298130.228868,42692.898980,-131415.294596,-5606.800917,14309.003065,518410.312500
1860,0,-0.102970,-0.101848,0.030930,-120404.336328,-392945.921094,2018.276660,27699.893359,1254.014307,18238.458533,1257414.000000
1861,0,-0.029655,0.032765,0.014049,102981.680664,-254805.321777,79375.000244,-34101.684189,-32354.274292,39188.278198,851533.312500
1862,0,-0.027580,0.027219,0.034593,83331.071387,-362189.614258,46069.499121,-15003.239063,-16220.202515,-5930.126257,493652.437500
1863,0,-0.044107,0.043325,0.012083,106833.843967,-238962.724013,16173.408800,31574.578315,20.890383,23740.341037,218430.765625
1864,0,-0.061701,0.158486,0.055466,51671.494080,-264238.840541,36412.310477,-74271.598528,-4733.975965,-13432.364589,312007.906250
1865,0,-0.071986,0.171348,0.050212,-352467.340909,-463501.909180,-25869.771795,-276124.348810,-10001.503677,-8926.997553,941752.125000
1866,0,-0.047068,0.179801,0.049049,-453138.840169,-313148.372152,26983.331014,-41862.671265,-14931.493159,-1367.770948,312007.906250
1867,0,-0.071130,0.171717,0.077063,-373180.100675,-462834.937500,-11859.362693,-255433.256436,-15269.147733,-25730.924594,595940.312500
1868,0,-0.029819,0.166963,0.049914,-28756.925528,-256947.714216,65162.944776,198886.708697,5808.511440,25360.379704,1105110.875000
1869,0,-0.076995,0.151080,0.033025,33316.978371,-378359.093323,4370.737305,-220562.232758,20754.873489,19053.048336,517745.093750
1870,0,0.070616,-0.071485,0.013375,53086.846680,-276440.981771,12367.155436,74286.014540,2621.967529,-2195.913133,277579.937500
1871,0,0.057250,-0.057576,0.014810,79532.479031,-278292.647569,11638.005534,69200.788954,3210.242113,-17884.003052,301007.968750
1872,0,0.073000,-0.073000,0.031528,38751.851196,-220595.469531,18480.409155,90376.101367,2018.131890,1199.503419,317463.281250
1873,0,0.074389,0.075036,0.091140,112574.406793,-191665.814236,11145.363118,-11085.434333,-7402.565416,3812.743564,393286.593750
1874,0,0.060801,0.060418,0.091506,121499.206407,-207874.227648,23049.222032,-13322.050680,-7004.853394,-13382.280273,345132.718750
1875,0,0.073000,0.073000,0.073565,100446.975781,-148634.544922,11684.828495,-16289.303003,-7796.354171,4146.890527,207810.109375
1876,0,0.089770,0.088668,0.091269,136218.154478,-145041.460503,18780.019857,-50644.912360,-6102.656279,28777.224338,701704.250000
1877,0,0.030479,-0.029756,0.051671,25924.632568,-366971.698437,16993.884949,49621.036035,-4578.214114,1338.672113,984275.312500
1878,0,0.014071,-0.010103,0.077096,216816.144810,-712867.439732,-14168.296055,22531.072841,-10438.706116,-11520.329760,663479.062500
1879,0,-0.028896,0.029754,0.052820,68543.517529,-358537.744922,24026.967834,-15121.667969,2131.670679,-14340.916309,950530.312500
1880,0,-0.044009,0.044009,0.052547,79678.299609,-162127.960938,43391.880713,65020.023047,7963.112222,-4455.158221,465140.531250
1881,0,-0.070623,0.070778,0.014033,103688.921441,-234350.582574,11490.735758,39530.832574,-184.609673,-11156.929104,233398.609375
1882,0,-0.085582,0.085198,0.013587,129207.394965,-199241.884874,23252.358887,79592.534234,779.151557,-29074.763604,809395.875000
1883,0,-0.056591,0.056207,0.013587,99631.766330,-237813.740017,11104.415880,35981.953328,4282.623277,916.484592,233398.609375
1884,0,-0.073967,0.074147,0.029995,81786.656689,-179887.143457,12203.269141,49102.477930,-2998.164264,-6108.907544,236243.593750
1885,0,-0.074709,-0.074406,0.091203,25098.751465,-298025.347222,14876.952270,-105475.353278,4287.175624,916.805556,267386.468750
1886,0,-0.073000,-0.073000,0.073565,9647.708765,-245860.125781,12213.532702,-121244.608594,1138.555511,-2434.568994,553166.937500
1887,0,-0.089853,-0.089052,0.091489,17232.795844,-280130.818685,26959.691026,-104284.336155,4214.501356,-19705.893826,267386.468750
1888,0,-0.060418,-0.060801,0.091506,30872.272081,-303550.316840,11341.034776,-108951.390408,1493.049817,12694.352485,365448.625000
1889,0,-0.000663,0.104324,0.013375,2792.033813,-1897819.409722,-10664.985107,2828.502584,1165.296570,19289.572320,1909765.375000
1890,0,0.000000,0.103238,0.031528,44.730898,-1929137.425000,-30827.470862,4381.811719,2211.083919,18220.480884,1898738.500000
1891,0,-0.001158,0.084666,0.013800,5250.356500,-1889493.854167,-13562.146193,5150.263543,2240.943583,1716.390954,1896593.375000
1892,0,-0.001230,0.124226,0.012518,9786.282186,-1928836.284722,-27296.306573,548.151915,4782.666314,52241.731120,1916413.500000
1893,0,-0.040249,-0.000134,0.010285,692886.608290,-317701.723718,123012.692790,-39292.717828,-83486.715624,7412.646783,935494.375000
1894,0,-0.059236,0.001005,0.014066,735931.548611,-7524.999190,67231.264567,-11890.494076,-39712.243571,1956.199253,600909.125000
1895,0,-0.040671,0.000639,0.034374,694165.215625,-266916.367773,158902.942285,-8859.539403,-54885.654736,1367.708887,928455.625000
1896,0,-0.077013,-0.152606,0.012767,107244.403476,-416193.623047,8820.932706,91668.968661,43395.783248,-10879.953266,623958.812500
1897,0,-0.090521,-0.162277,0.029780,-271996.046526,-811187.877790,-194592.344581,417759.714286,9097.167097,-6850.234721,1077633.125000
1898,0,-0.070624,-0.175445,0.011709,-158816.174205,-596890.008168,-132596.504306,77933.664728,12967.013797,-56374.245694,160686.968750
1899,0,-0.096997,-0.158528,0.055179,-269045.960130,-748994.829327,-179222.379132,444132.626803,-10895.416316,10919.482389,690735.750000
1900,0,0.103238,0.000000,0.073565,692769.596875,2092.475263,8599.794220,4971.109009,3639.052165,1213.692624,686223.250000
1901,0,-0.082945,-0.000519,0.014039,723604.388889,-3662.320009,12481.684686,-7328.753593,-2702.144676,-2922.894453,726796.187500
1902,0,-0.082738,0.000000,0.031528,776274.168750,1334.701369,26745.083624,-8047.344104,-7289.028473,1885.375717,770073.937500
1903,0,-0.105635,-0.001131,0.014033,722514.986111,-918.904399,6720.686523,-6959.830305,6327.272851,1254.249634,680166.000000
1904,0,0.126523,-0.137670,0.013218,-103029.755656,-179849.681966,20031.766774,-112525.796387,20882.016866,-9527.044352,284391.156250
1905,0,0.086115,0.085650,0.013416,97094.984646,-182169.595920,42477.546224,-27270.526313,-1423.270372,-15610.195014,404461.812500
1906,0,0.071964,0.071344,0.013217,129773.761529,-193514.070747,64.819675,-50626.686632,-2086.727363,-5318.150458,404461.812500
1907,0,0.102708,0.104305,0.012391,-135419.050586,-313671.091504,9034.410498,135780.716992,4600.944873,-51163.989600,1003739.500000
1908,0,-0.101380,-0.102230,0.073843,-136104.237134,-405513.579688,-16157.017578,-6671.721484,8052.226727,-22384.893121,1291330.000000
1909,0,-0.102498,-0.102413,0.051879,-133326.524878,-386537.741016,-10661.671191,3277.104688,6611.923088,466.001053,1105086.750000
1910,0,-0.087495,-0.087495,0.073565,25016.623120,-255795.676172,37484.873047,-134615.321094,6886.906091,-18200.263013,960996.687500
1911,0,0.057469,0.056849,0.013217,131606.369032,-192295.534288,-3115.109090,-57177.242893,-13525.269382,-181.102237,400724.000000
1912,0,0.046371,0.044720,0.012422,137030.343262,-179851.183517,18383.572266,-66133.122803,-20454.045975,9262.358765,273653.468750
1913,0,0.044728,-0.046305,0.012380,134342.970215,-226860.895996,65998.477783,109291.031006,12050.475067,-37925.936306,602667.250000
1914,0,0.058504,-0.058504,0.031528,39244.081329,-236700.561719,15614.554224,89355.261053,592.540185,-4951.440584,427585.093750
1915,0,0.001119,0.141244,0.013362,-164843.165833,-1991965.234375,-190881.741135,6041.866951,16946.016663,142780.180908,1641127.750000
1916,0,0.000000,0.123737,0.031528,16696.199496,-1909436.531250,-82133.976953,6032.801271,8431.862955,47474.635938,1834737.500000
1917,0,0.001041,0.059151,0.014172,10154.966370,-1885865.518750,-66764.094446,7977.275427,3214.152875,-31372.698993,1852387.000000
1918,0,-0.000128,0.063733,0.031747,4195.038678,-1922576.443750,-96487.204687,1891.034016,276.568732,-19806.831238,1888308.875000
1919,0,0.000543,0.040511,0.034210,11979.277333,-1809485.528409,-211538.933993,6046.008372,-8817.685491,-71775.228338,1852387.000000
1920,0,0.001300,-0.065396,0.013635,8702.672390,-1672553.402778,-36555.805718,3932.261773,-5313.685533,24692.108055,1617163.375000
1921,0,0.001189,-0.044783,0.014135,22343.909210,-1709608.687500,-181622.152771,961.861160,7858.182640,97438.433777,1673413.875000
1922,0,0.000000,0.082738,0.031528,1533.621967,-1932593.368750,-31429.654309,3227.871100,922.110884,911.276550,1924578.625000
1923,0,-0.001350,-0.085123,0.090617,3510.338996,-1655469.840278,-6859.736138,-1046.141908,-1316.226566,-9937.676657,1675840.750000
1924,0,-0.000494,-0.064650,0.092728,10019.046590,-1671757.777778,-34688.124132,-3722.546604,711.232195,-30725.038555,1633626.000000
1925,0,-0.000000,-0.082738,0.073565,428.623640,-1702330.743750,-16970.966766,1152.584662,-109.823660,-14956.704271,1686309.000000
1926,0,-0.001097,-0.100171,0.092781,3422.752904,-1649045.402778,-3548.747118,-2123.890912,879.401815,-3879.240072,1650708.875000
1927,0,-0.046028,0.046666,0.091187,163199.609375,-214535.625732,36999.108582,98836.368652,-16006.484299,-13125.581512,499996.500000
1928,0,-0.043044,0.043766,0.074441,108802.636292,-190640.921948,29061.276758,77261.918945,18606.796889,-12173.837964,450408.375000
1929,0,-0.061278,0.060398,0.091021,120131.659776,-239370.554253,-10038.479187,86939.762858,-4983.138726,-182.196214,525754.812500
1930,0,-0.178724,-0.049885,0.070103,-67595.754482,-237739.935522,7998.008105,143905.137402,3670.331462,1181.836676,400457.625000
1931,0,-0.162625,-0.050136,0.056091,-111691.983594,-524903.822656,-64850.843994,224400.500000,-1969.406888,1869.155762,607265.250000
1932,0,0.184301,0.024394,0.028026,32449.884877,-323437.696733,-1468.601940,121474.445490,532.534131,393.001536,488706.031250
1933,0,0.160961,0.092333,0.056009,-60898.686758,-186211.980469,17999.683941,85148.323167,-2938.717208,329.024421,210327.265625
1934,0,0.145370,0.088493,0.049002,-150070.217640,-448944.419034,-58842.518641,239375.975320,834.091657,5281.584115,556762.000000
1935,0,0.150255,0.108869,0.049054,-23791.981234,-176740.956055,26612.911876,104641.768333,-3478.641740,3324.355827,210327.265625
1936,0,0.183900,0.024027,0.049085,26277.504716,-327305.981534,-11439.741117,128301.975497,2276.650474,-1143.493190,346746.625000
1937,0,0.102664,-0.000182,0.091677,643719.250000,-1186.144845,4537.317647,461.872769,2461.551100,346.883918,633816.250000
1938,0,0.085325,-0.001565,0.091931,641900.718750,-3879.850484,9196.096063,-2248.204094,215.751817,5738.880651,660103.687500
1939,0,0.001150,-0.100034,0.050576,-2634.140094,-1721301.958333,-17653.023139,448.711586,124.326185,-2801.910990,1701481.000000
1940,0,0.122606,0.000803,0.091230,649589.392361,-5561.594693,22514.864963,1914.623547,14619.370847,1454.526660,639396.937500
1941,0,-0.131611,-0.130684,0.049054,-143836.207404,-242770.457031,23691.652478,173822.301563,-261.908627,3748.598245,448391.781250
1942,0,-0.111605,-0.148339,0.049054,-102104.394124,-507383.622396,-29584.160380,239539.881917,-1663.200226,1800.520724,690735.750000
1943,0,-0.115802,-0.124568,0.056060,-204262.062093,-424353.022786,-29366.606168,175373.945841,1738.506889,5364.900543,508655.500000
1944,0,-0.112445,0.147877,0.049049,-116245.701091,-342758.267045,9734.814115,-176428.927290,-10018.691817,2868.468217,507165.937500
1945,0,-0.098249,0.138340,0.035036,-143790.255880,-601304.913411,-76037.111959,-299022.819499,2142.428894,14702.663147,1018034.500000
1946,0,0.181593,0.045029,0.092865,-69631.213174,-194277.879720,11777.019426,138339.089681,-9041.583639,-4406.403023,226763.765625
1947,0,0.060845,-0.059555,0.091937,71011.076484,-282428.029514,7001.396864,133206.347819,-1803.873006,10887.722812,527675.875000
1948,0,0.074656,-0.075456,0.091509,58151.600898,-270185.532986,-2490.769545,132712.217746,-7904.370199,-1901.472324,354867.843750
1949,0,0.058504,-0.058504,0.073565,20727.940601,-241072.325781,9389.369257,106966.698605,-3193.624609,-1449.692137,432032.062500
1950,0,0.045900,-0.046862,0.090782,35456.628845,-337096.597656,32.444641,76933.283295,-1495.575058,28602.781036,645658.375000
1951,0,-0.058504,0.058505,0.073565,72253.411914,-190985.222266,-1201.227322,57390.253711,3527.748786,-2334.111868,232166.593750
1952,0,-0.075297,0.074913,0.091506,114519.859565,-224995.750868,2724.696452,84003.983480,5787.963616,6260.599040,532442.000000
1953,0,-0.058504,0.058505,0.031528,86185.703711,-173877.600391,11032.374194,47511.846484,-549.381451,1983.289484,246449.562500
1954,0,-0.058504,-0.058504,0.073565,3238.013293,-246203.541406,7494.180237,-122075.664453,-4545.270146,4754.252322,430606.906250
1955,0,-0.045723,-0.046392,0.091474,56674.166884,-286845.665744,15396.064117,-141863.145833,494.328159,19158.606974,397405.062500
1956,0,0.053885,0.178787,0.076868,-516797.738281,-350367.791431,-1019.771289,139746.496191,18533.546802,-9119.210938,375190.250000
1957,0,-0.103238,0.000000,0.031528,775554.621875,1437.233447,13853.023680,-7102.976398,5627.277301,1232.851314,770073.937500
1958,0,-0.125906,-0.001175,0.013554,723790.611111,480.866575,36412.677748,-3267.851620,20625.182807,6356.472378,693367.062500
1959,0,0.087495,-0.087495,0.031528,53156.704053,-217015.397070,43192.554004,109894.008984,1281.477064,10774.627704,874096.875000
1960,0,-0.095524,-0.140952,0.077110,50382.388224,-672177.992839,-30707.408407,253986.732625,-3636.530350,10426.905579,945288.500000
1961,0,-0.096303,-0.140205,0.056081,-2143.367627,-704610.267188,-60042.818848,253076.296973,-7536.207588,12193.363688,878301.875000
1962,0,0.073000,-0.073000,0.073565,29607.116528,-239008.809766,10258.929724,105770.542114,-3584.301266,-5730.791705,477114.312500
1963,0,0.088391,-0.089991,0.091937,57519.156793,-246961.123060,16415.181532,125931.009332,-9542.854601,-25690.814860,339191.343750
1964,0,0.058504,0.058504,0.073565,100108.103741,-143492.269727,24362.796191,-21710.842041,-3257.930188,3899.069110,264184.281250
1965,0,0.046401,0.046229,0.091061,102328.264160,-246103.865234,19311.172607,6861.189880,-5276.035614,-46418.821625,546088.875000
1966,0,0.170014,0.008702,0.035042,210474.552290,-325695.344460,7706.418191,61699.658070,-453.127907,-2786.778243,488706.031250
1967,0,-0.000377,0.146066,0.031534,-136724.504705,-1693859.659091,-221801.466087,13055.750699,9014.390581,91292.264737,1641127.750000
1968,0,-0.058504,-0.058504,0.052547,1609.944897,-255413.831250,3860.606531,-120400.221094,-8823.024957,-448.913892,333051.062500
1969,0,-0.073000,-0.073000,0.052547,8932.679898,-257017.905859,11402.944922,-121821.397852,300.461697,2235.952777,553166.937500
1970,0,-0.058504,-0.058504,0.031528,15879.207825,-274267.352344,-5718.547913,-124060.357617,-3239.648466,-3466.533493,342275.437500
1971,0,0.073000,-0.073000,0.052547,31800.550342,-228691.125391,17903.282837,95402.322852,233.640442,-2294.042176,292270.656250
1972,0,0.058504,-0.058504,0.052547,24630.896814,-221824.331250,13194.279028,94784.517618,-3406.059739,2328.561492,292270.656250
1973,0,0.087495,-0.087495,0.073565,49337.184607,-234536.262500,37778.491650,125562.292578,2058.336246,-18878.412927,469003.000000
1974,0,-0.087495,-0.087495,0.052547,23098.888330,-253774.805664,44311.495459,-138957.152344,7909.101569,1680.529317,981342.562500
1975,0,0.145467,-0.001021,0.091124,597743.514844,-67474.883508,77435.849695,4287.786942,43136.211182,-2040.372092,671694.312500
1976,0,-0.104322,0.102958,0.092127,-103151.246083,-229411.834495,18044.233798,-153060.798828,-5892.845548,35162.158358,189032.437500
1977,0,-0.102329,0.101087,0.073976,-76855.537451,-298602.139160,4785.639844,-93782.049805,-2165.059967,14407.861938,1075396.000000
1978,0,0.002208,-0.126446,0.088205,4497.763686,-1654242.302885,-40371.918391,-770.062393,1545.215570,10855.708551,1564185.125000
1979,0,0.027550,0.027098,0.034703,63065.451362,-328216.840278,46587.605686,35407.055773,8991.448866,11138.773997,269188.125000
1980,0,0.030118,0.030570,0.072361,91606.023438,-330461.919000,48570.694567,57857.726128,-16949.576158,5760.491197,971435.187500
1981,0,0.044009,0.044009,0.052547,94928.118262,-123838.090234,50718.444897,-35975.339380,1019.300530,14299.181055,589336.875000
1982,0,-0.044009,0.044009,0.031528,83932.724902,-177919.119531,40045.742041,58802.799609,-2313.192303,10332.821909,495375.468750
1983,0,-0.073223,-0.072914,0.031628,6437.725671,-267905.482812,4269.638165,-126055.087451,-1630.824038,6290.792493,568373.562500
1984,0,-0.071087,-0.070703,0.013587,48403.739461,-314797.962674,-3283.375054,-152732.271918,-3211.219767,4274.369642,441365.562500
1985,0,-0.178724,0.049885,0.028066,-84421.202454,-214168.121582,16989.501612,-136320.499268,-8268.160718,151.559591,292452.250000
1986,0,-0.167310,0.028245,0.049038,8472.669478,-471081.510653,-47508.447765,-222075.948153,1647.161183,-10818.090313,728664.437500
1987,0,0.044009,-0.044009,0.052547,26872.561951,-203712.286865,26889.970679,106988.910156,-10302.677271,822.161267,739722.625000
1988,0,0.043042,-0.042862,0.075098,23986.636125,-277148.070361,24342.834137,86461.482593,-13591.219043,-7988.041284,762092.312500
1989,0,0.044009,-0.044009,0.031528,61565.563702,-221092.786816,35128.804517,123280.753516,-1708.201453,-1787.725708,413726.812500
1990,0,-0.073000,0.073000,0.052547,77610.298926,-186783.478516,13790.572461,50377.276953,-5327.610151,5062.662109,428737.187500
1991,0,-0.073000,0.073000,0.073565,86154.250488,-181460.071680,8342.256885,62777.625977,-2189.963275,8827.453015,456744.062500
1992,0,-0.087495,0.087495,0.052547,103438.139355,-195580.980078,48117.552295,75578.940820,-5520.062347,3880.062720,251151.062500
1993,0,-0.001222,0.121695,0.049057,14641.903564,-1907443.548611,-103586.166450,11584.957180,3402.078467,1268.574205,1870612.125000
1994,0,0.027550,-0.027098,0.034703,43108.834093,-398254.455621,-3306.181315,38246.161675,5567.954671,10345.574666,722986.312500
1995,0,0.133157,0.135278,0.013840,-118895.599141,-145297.990641,11615.313680,95368.519124,9656.513545,9754.234962,219001.890625
1996,0,-0.087495,0.087495,0.073565,107363.567383,-175723.981250,53529.360046,72107.335742,-3269.421991,21328.009607,231200.343750
1997,0,0.145370,-0.088493,0.049002,-148620.678650,-445078.309245,-53348.074788,-232303.653971,-1682.947215,702.782311,522456.093750
1998,0,0.160737,-0.091200,0.056134,-63058.618809,-230846.856210,10336.287005,-96822.059849,-3605.828893,2888.981126,282566.937500
1999,0,0.113758,-0.126613,0.077124,-178823.202148,-365614.088728,-21487.831480,-166371.562151,-2614.158433,-6269.624965,429262.187500
2000,0,0.134125,-0.128304,0.076553,-110606.833334,-175089.579425,23854.151297,-129502.074939,-10797.381982,-534.275003,274182.187500
2001,0,0.120033,-0.141808,0.070016,-91201.717041,-294995.899503,17574.101232,-130869.702237,-8596.698919,-5958.473181,274182.187500
2002,0,0.132974,-0.135245,0.093920,-106420.532691,-193008.461192,1281.361214,-108577.106801,-11371.516754,-1482.611956,301235.656250
2003,0,0.134346,-0.104439,0.070052,-120626.725220,-319307.927083,-1510.399373,-273432.290365,-1480.968343,4319.654210,579473.750000
2004,0,-0.000300,0.073421,0.090473,8765.493544,-1885737.144231,-39872.492957,10973.356854,-2767.123352,25976.049565,1800787.625000
2005,0,-0.089832,0.089278,0.090844,80178.965725,-237062.542182,35903.368191,23973.370226,6622.437554,20426.498183,345399.437500
2006,0,0.101196,-0.001222,0.056036,711066.086806,-1002.392787,12598.497884,5520.743761,2973.483704,749.338196,699333.875000
2007,0,0.042862,0.043042,0.075098,97891.213477,-173207.271680,51181.039221,-14035.797168,-7223.865067,13830.349097,778979.562500
2008,0,-0.123737,0.000000,0.031528,771352.228125,7501.856983,50674.634644,-8256.807469,16150.304486,1790.734645,766095.187500
2009,0,-0.123737,0.000000,0.052547,787103.156250,3167.114729,58868.033984,-5654.640259,1473.353021,-218.538220,784071.812500
2010,0,-0.141063,0.000274,0.031995,702413.282670,-57004.017537,114874.994673,674.460828,35274.743304,586.802000,711863.687500
2011,0,-0.099756,0.099509,0.055968,-25908.357205,-300608.428819,12061.749891,-37952.709635,4215.670780,-9369.643907,1089927.125000
2012,0,-0.087495,0.087495,0.031528,105055.789453,-181849.255859,39943.965747,70863.208203,-4337.375653,-14190.682220,236243.593750
2013,0,0.039095,-0.001190,0.014578,661064.802734,-340975.861938,112491.688904,-10765.525421,69146.569214,5997.908997,627157.250000
2014,0,-0.058505,0.058504,0.052547,74252.765308,-180336.634375,10179.565408,48405.687109,518.421301,571.042545,237830.031250
2015,0,-0.146635,-0.113998,0.049059,-52931.588285,-219149.068810,35541.749988,123178.035081,496.104331,-810.453017,320301.593750
2016,0,0.079802,0.001565,0.049865,708976.862500,-2084.140144,22360.599072,7397.132086,4323.718176,-789.001785,707645.312500
2017,0,0.093441,-0.000163,0.022233,686649.175347,-2760.822586,13310.127024,8611.725014,2788.630868,-451.302361,669337.875000
2018,0,0.062238,0.000000,0.052547,694356.284375,30053.194803,90419.276172,8788.023071,3027.602214,-1463.554431,561954.062500
2019,0,0.082738,0.000000,0.073565,690715.925000,1516.219582,19181.766180,6568.134839,-3200.216158,2398.977918,665604.812500
2020,0,0.000698,-0.132023,0.044182,-23485.396635,-1681438.379808,-95102.383395,-11100.345241,3564.156596,-12643.392064,1660239.000000
2021,0,-0.082738,0.000000,0.052547,791070.165625,-294.550936,39317.583301,-5373.227820,-834.779977,3727.134104,765656.937500
2022,0,-0.084820,0.001246,0.070117,782289.829861,-326.254869,40376.317491,-3824.518887,3429.976179,2189.205763,765656.937500
2023,0,-0.103238,0.000000,0.052547,794378.703125,-1416.825716,21411.172559,-4863.926514,5376.902032,1175.809658,783374.625000
2024,0,-0.029655,-0.167570,0.056091,-3695.943284,-210838.063214,15464.332257,-196350.995493,222.140052,-352.601807,403645.031250
2025,0,0.069849,-0.155187,0.056091,192639.728678,-371018.998856,35952.333382,-109364.779297,8756.012383,-5302.461853,698957.562500
2026,0,0.051213,-0.159312,0.010643,125864.991122,-117450.618774,36392.317960,125351.345527,-8351.943321,-3312.807695,351067.562500
2027,0,0.071661,-0.171164,0.049085,-260972.968359,-617037.838737,-191185.698130,-252666.724657,2408.233266,5829.155744,391062.375000
2028,0,-0.125873,0.000256,0.073127,777858.903125,5448.511664,40659.208935,-5316.311432,-13807.158375,-1706.674374,759402.812500
2029,0,-0.143821,0.000270,0.054747,717767.445312,-56848.669141,127092.333203,-2118.519972,3251.970441,-2048.289398,784322.875000
2030,0,-0.060316,-0.001150,0.070281,776817.902778,-9513.291585,98335.000977,-311.817274,26689.885447,1268.705558,694005.000000
2031,0,-0.062238,0.000000,0.052547,770540.296875,26850.174518,114207.055664,-4321.486824,-1093.044757,1886.856939,755976.375000
2032,0,-0.000000,0.082738,0.052547,2302.776898,-1942914.593750,-39521.041309,4425.194577,-648.546064,2381.650208,1934582.750000
2033,0,-0.041738,0.000000,0.052547,692332.176562,-245352.618359,149063.449414,-2069.618329,-513.619446,-3637.016829,979662.125000
2034,0,0.001727,-0.105150,0.012482,4865.391954,-1654996.298611,-5185.693641,1806.828630,-1858.844528,1466.772427,1643341.250000
2035,0,0.133104,-0.129308,0.056039,-110146.250718,-211375.579279,24006.300512,-125723.312744,-4449.202280,98.115407,274182.187500
2036,0,0.150255,-0.108869,0.056039,-21232.546231,-195177.455788,31722.041437,-106912.755643,-1838.543277,4402.110923,258604.234375
2037,0,0.003309,-0.147868,0.016769,-95340.611677,-1298420.590909,-128821.458496,27657.299463,-3363.702326,-63502.002991,904808.875000
2038,0,-0.029250,-0.168147,0.034074,-19015.370568,-261862.273222,16014.741136,-218127.732272,-22322.294523,-13974.156616,787658.062500
2039,0,-0.079454,0.147519,0.096181,-25455.424316,-477720.790365,2048.902273,-287929.326172,-35101.739014,-44660.697889,720693.625000
2040,0,-0.072658,0.175900,0.094184,-503105.855824,-700388.171520,-39088.860779,-289255.843395,-12007.972989,-43122.696074,872340.812500
2041,0,-0.094686,0.145501,0.012937,-35916.757355,-566705.442383,-19197.943319,-315766.812500,26892.419596,31932.361886,859888.125000
2042,0,-0.117137,0.147121,0.011939,-128626.455371,-353685.542187,6496.857788,-192447.244971,-12983.163098,1681.146893,400315.312500
2043,0,-0.000264,0.111437,0.081827,4098.834677,-1909659.323529,-36666.678304,9292.181310,956.170103,-22775.539012,1936648.625000
2044,0,-0.150983,0.108412,0.070937,-50597.391087,-193714.993106,20655.487148,-114646.485805,4776.076034,-8852.179177,270627.062500
2045,0,-0.151151,0.107941,0.091565,-41167.517480,-222529.258154,-6681.431104,-130072.113416,9415.381619,-21070.492065,100807.796875
2046,0,0.001201,-0.060222,0.048987,-3172.879132,-1682376.096591,-96543.026456,-1160.873493,271.300957,-3892.227927,1638808.125000
2047,0,-0.001166,-0.040003,0.034785,38030.384388,-1568849.636364,-162018.113370,-9276.330533,6461.518240,48981.721147,1605293.375000
2048,0,0.050444,0.179335,0.091509,-535420.079190,-470103.664773,3610.983443,123509.846325,16859.064764,-47015.290882,760322.875000
2049,0,0.055485,-0.177517,0.028423,-170155.548828,-337870.610677,-114689.195719,44636.966676,-4988.029668,-16646.628347,222853.796875
2050,0,0.156267,-0.075977,0.011191,-127117.744290,-356868.835938,-5038.048191,-183816.707248,9725.563965,1033.869303,571955.062500
2051,0,0.101985,0.102038,0.073595,-84499.372363,-271909.533594,-8259.518750,95195.359961,8706.049631,8690.167813,966724.312500
2052,0,0.101985,0.102038,0.052577,-79330.193164,-254848.345703,-11990.298926,82330.789844,116.590993,2243.950340,1108859.875000
2053,0,0.103315,0.103207,0.092742,-72195.015462,-212492.326074,9755.894629,151822.937695,-1878.314502,21090.355664,765345.812500
2054,0,0.087495,0.087495,0.073565,128396.008887,-136555.342969,33363.200126,-39059.451031,-6294.973269,14154.988264,679943.000000
2055,0,0.058504,0.058504,0.052547,94651.851465,-138132.261133,16904.396912,-18105.293237,345.321474,5875.795613,238205.531250
2056,0,-0.106605,0.000625,0.072689,778119.871875,-1615.958510,18670.368665,-3465.176764,7680.695311,512.081511,748602.000000
2057,0,-0.119840,-0.000716,0.092760,726975.187500,-5103.925631,18244.510202,-11808.180918,-2837.803057,-3024.098967,766440.562500
2058,0,-0.143821,0.000270,0.075743,719275.707812,-62204.509119,110647.233398,611.381895,-35985.154488,-5018.974854,724202.125000
2059,0,0.060743,0.000128,0.073346,677829.725000,13439.731348,75483.562695,9628.272295,-18756.490468,5710.372192,665604.812500
2060,0,-0.128108,-0.112262,0.056060,-134698.709961,-252480.596680,29864.046328,287710.513672,2036.732285,4308.857028,618221.812500
2061,0,-0.185844,-0.028166,0.092628,-15004.073647,-305101.392045,-9361.184792,169807.551491,231.543574,4677.482215,418481.500000
2062,0,-0.170060,-0.034792,0.093693,-51080.280859,-400965.213281,-14722.074536,227997.447656,12130.643011,-24140.587418,640062.875000
2063,0,-0.168874,-0.035346,0.011686,-72261.313787,-366667.327415,-12662.509017,206233.901989,-16385.723113,12426.396384,507303.375000
2064,0,0.050427,-0.181533,0.013028,-141382.820964,-214715.464233,-52260.820190,78970.806793,2879.825083,-30461.841563,323839.000000
2065,0,0.073000,0.073000,0.052547,100548.050787,-143600.584961,11661.589880,-17459.940906,-5989.717941,-476.396620,322403.156250
2066,0,-0.113075,0.147530,0.028026,-113623.969076,-340097.977214,16897.453456,-182528.415487,-7009.270749,18518.826477,507165.937500
2067,0,0.173386,0.066981,0.056045,-78695.843018,-145281.228923,20009.970795,76465.821065,2293.471320,2009.434704,84146.609375
2068,0,-0.000351,-0.063786,0.071212,-193.269577,-1693018.000000,-69134.306445,2927.555563,617.435550,-32584.548975,1669072.375000
2069,0,-0.000064,-0.041845,0.071047,8462.184906,-1580430.175000,-170038.402466,9919.526151,4960.883685,-62691.841895,1523314.625000
2070,0,-0.155775,0.068295,0.035072,-129735.936198,-564873.689236,-54031.051432,-252681.835069,-15631.546170,-2146.477129,594493.500000
2071,0,0.031929,-0.031477,0.070391,18611.200512,-383090.181098,23643.963813,24710.165093,-17574.736386,13145.340441,960402.875000
2072,0,0.041311,-0.001277,0.052985,624040.617188,-232913.133887,115398.994922,11709.564404,-904.011322,885.701529,561954.062500
2073,0,0.040671,0.000639,0.070719,597415.466146,-296789.305176,80539.281033,17410.881232,-46324.823378,-3158.111857,1121341.250000
2074,0,0.065248,-0.000266,0.014908,674914.867188,-3158.828602,42681.747139,11984.596802,20160.873169,-210.323288,669405.687500
2075,0,0.065325,-0.001041,0.090921,648113.179688,-24309.150457,48762.658661,-7317.189977,-17783.323959,13997.601252,613957.000000
2076,0,-0.025062,-0.184130,0.053642,-67478.324707,-256463.466471,-57011.039062,-117119.340983,-757.507629,4681.990016,191715.687500
2077,0,0.167175,-0.010451,0.092918,260561.514759,-316195.305398,8266.313004,-73611.984686,10442.206142,-9297.846719,590762.812500
2078,0,0.044009,0.044009,0.031528,121144.570020,-139524.387305,44598.035254,-49043.773340,9255.872182,22842.101431,245613.062500
2079,0,-0.050955,0.161951,0.071353,45202.766276,-201945.616496,58205.380290,12721.927022,-4120.273600,-8244.720561,312007.906250
2080,0,0.087495,0.087495,0.052547,116682.400342,-136916.042969,40830.872314,-38106.760583,-5958.605774,-887.385458,690068.062500
2081,0,0.101985,0.102038,0.031558,-93606.896582,-289980.930859,-5428.842285,92472.260449,-4879.137895,-11005.501913,1122964.250000
2082,0,-0.169930,0.012039,0.070052,175575.473828,-404679.110938,-3512.561670,-111755.800684,-1713.847473,959.298076,479132.593750
2083,0,-0.094828,-0.142657,0.036481,37101.054118,-663675.770833,-48455.697795,237111.344238,10151.126506,-5316.510094,623958.812500
2084,0,-0.169930,0.012039,0.049033,165555.267871,-411552.710938,-8610.325085,-131565.619141,-36.695297,171.192529,728664.437500
2085,0,-0.182914,0.032828,0.035021,-22134.891323,-328736.509487,-10045.137743,-162362.311384,-881.219293,-1438.017399,354779.156250
2086,0,-0.100111,0.099999,0.013395,-27033.410699,-287101.697483,8399.544189,-47064.842882,-2203.066976,-27268.865533,393152.125000
2087,0,-0.001497,-0.044329,0.091928,3525.490265,-1711692.273438,-166386.202805,-3513.780411,252.581726,-99845.721924,1741917.125000
2088,0,-0.139927,0.093892,0.069766,-142806.741830,-536327.777344,-62194.901716,-314179.919085,-8560.113631,-6317.040484,901656.125000
2089,0,-0.063733,-0.000128,0.031747,765905.715625,22597.629938,102181.024414,-7933.474747,-30862.053613,3397.212598,668451.500000
2090,0,0.007033,0.169993,0.049033,-132415.370643,-698920.878606,-9827.837139,-62594.066575,-4727.545988,4697.374108,499144.218750
2091,0,-0.001150,-0.037895,0.054517,901.411514,-1566048.331250,-187145.946191,-2762.883862,5221.274762,-13020.224243,1146450.750000
2092,0,-0.087495,-0.087495,0.031528,16960.570901,-256028.320117,43210.023834,-137167.840234,3545.070259,16597.231125,416264.125000
2093,0,0.104185,-0.101447,0.091338,-164452.616895,-322445.764038,10471.271729,-64031.380273,-3699.534766,-33900.265259,1073666.125000
2094,0,-0.172343,0.068543,0.049085,-88362.166005,-240376.571289,7818.508565,-109666.915853,1756.762484,748.377056,601257.875000
2095,0,-0.000173,0.133392,0.094187,-74968.978094,-1936175.187500,-100006.268399,-4879.061399,-7038.362943,-81828.756836,1943479.750000
2096,0,0.000639,0.102170,0.055393,5324.872687,-1934599.018750,-41809.389844,7013.574683,1474.515778,2345.601807,1938641.000000
2097,0,-0.178724,0.049885,0.070103,-90072.767120,-218081.540805,13989.000111,-143375.374023,3972.522483,-3726.868510,328900.718750
2098,0,-0.178724,0.049885,0.049085,-82180.945290,-214227.112061,14453.497769,-140567.088867,-272.204170,-5515.645279,369451.562500
2099,0,-0.162625,0.050136,0.056091,-123637.770996,-497098.509115,-62415.397817,-220614.923828,3433.797733,-2521.716828,513171.812500
2100,0,-0.141942,-0.094206,0.010222,-93084.056507,-418083.121449,-3108.547496,233971.289062,-2397.140786,-21504.776696,662310.812500
2101,0,-0.010516,0.170535,0.048042,-166471.882302,-621818.996449,-233.479048,158390.086537,5830.071345,8288.457753,499144.218750
2102,0,0.134346,0.104439,0.077079,-121542.899902,-323788.502930,-22207.391797,297324.557031,9853.109760,-9791.527542,330152.875000
2103,0,0.133104,0.129308,0.028035,-114945.636032,-122867.125781,21707.508350,116465.938770,4361.813306,9775.174245,221667.562500
2104,0,0.134346,0.104439,0.056060,-119334.445821,-313958.789551,-27662.638822,275551.065104,-4342.893514,-2522.142792,905101.125000
2105,0,0.133104,0.129308,0.049054,-102072.431012,-126739.793066,27880.813490,109218.761035,-910.910721,4034.279025,277168.718750
2106,0,-0.151428,-0.114190,0.011472,-35712.376141,-232345.573840,8920.992236,126238.266284,-5333.127493,-9809.364056,314213.218750
2107,0,-0.025418,0.184074,0.051450,-375306.994535,-377735.690204,89812.985389,97934.337628,-4088.457261,3018.845258,697165.187500
2108,0,0.001289,0.185905,0.056050,-220870.384570,-544945.148438,104561.002930,4432.386523,-1043.832504,-8848.986194,523465.406250
2109,0,-0.000389,0.144192,0.052584,-130783.544189,-1738890.678125,-272254.504785,-8471.567871,3880.435965,5960.237134,1737917.125000
2110,0,-0.162625,0.050136,0.077110,-120567.297626,-489306.487981,-41454.794077,-224683.859375,3569.371807,3237.537205,550762.250000
2111,0,-0.088670,0.162062,0.049409,-181622.177734,-462343.979353,-7923.558001,-342169.776786,-344.085849,-5546.693617,752973.812500
2112,0,-0.091921,-0.162082,0.010329,-261917.942708,-781902.502604,-132584.098129,424431.130859,22238.597593,-26845.081927,1077633.125000
2113,0,0.108469,-0.130219,0.092666,-216815.542791,-480960.398082,-37618.558261,-165777.688121,-4066.383523,3556.529663,437245.875000
2114,0,-0.093029,0.160839,0.073563,-205968.945312,-465712.733398,-1387.381513,-350405.589286,-5433.832650,-11081.596484,752973.812500
2115,0,-0.112588,-0.151226,0.095505,-53255.363370,-483525.541903,2493.720391,237683.170455,16255.695673,-14642.632140,477377.750000
2116,0,-0.162278,-0.094237,0.010552,-31919.861199,-201344.619336,18080.427344,76691.674219,-8439.393262,-4459.909510,552782.500000
2117,0,-0.182379,-0.050959,0.093333,-59260.754218,-227057.181912,11795.267917,155985.935221,2654.615868,9103.157454,193041.828125
2118,0,-0.160791,0.092531,0.056009,-59547.112354,-222610.812891,11508.005591,-98720.616455,-1609.007529,-7133.638940,579602.750000
2119,0,-0.143079,-0.002598,0.090467,695062.755208,-72820.737698,69477.904107,-4399.470622,-48701.443414,-7092.553955,687738.437500
2120,0,-0.182914,0.032828,0.056039,-21744.177630,-332947.656250,-12140.928650,-159637.377790,3452.208278,-921.870245,380956.218750
2121,0,-0.001272,0.147394,0.076060,-146252.052517,-1749938.881944,-238356.039714,-1313.643039,-3637.943719,-98127.366319,1693964.875000
2122,0,-0.141254,0.000370,0.013398,686096.754464,-30063.642535,86670.516078,14366.037606,56798.426200,9232.464844,690435.625000
